*Heading
** Job name: BiasH2-85 Model name: EmbroideryBiasExtensionH2
** Generated by: Abaqus/CAE 2022
*Preprint, echo=NO, model=NO, history=NO, contact=NO
**
** PARTS
**
*Part, name=BiasExtension
*End Part
**  
**
** ASSEMBLY
**
*Assembly, name=Assembly
**  
*Instance, name=BiasExtension-1, part=BiasExtension
*Node
      1,   25.4099998,   25.4099998,           0.
      2,   12.7049999,   38.1150017,           0.
      3,           0.,   25.4099998,           0.
      4,   12.7049999,   12.7049999,           0.
      5,   25.4099998,           0.,           0.
      6,           0.,           0.,           0.
      7,           0.,   50.8199997,           0.
      8,   25.4099998,   50.8199997,           0.
      9,   25.0570831,   25.7629166,           0.
     10,   24.7041664,   26.1158333,           0.
     11,   24.3512497,     26.46875,           0.
     12,    23.998333,   26.8216667,           0.
     13,   23.6454163,   27.1745834,           0.
     14,   23.2924995,   27.5275002,           0.
     15,   22.9395828,   27.8804169,           0.
     16,   22.5866661,   28.2333336,           0.
     17,   22.2337494,   28.5862503,           0.
     18,   21.8808327,    28.939167,           0.
     19,    21.527916,   29.2920837,           0.
     20,   21.1749992,   29.6450005,           0.
     21,   20.8220825,   29.9979172,           0.
     22,   20.4691658,   30.3508339,           0.
     23,   20.1162491,   30.7037506,           0.
     24,   19.7633343,   31.0566673,           0.
     25,   19.4104176,    31.409584,           0.
     26,   19.0575008,   31.7625008,           0.
     27,   18.7045841,   32.1154175,           0.
     28,   18.3516674,   32.4683342,           0.
     29,   17.9987507,   32.8212509,           0.
     30,    17.645834,   33.1741676,           0.
     31,   17.2929173,   33.5270844,           0.
     32,   16.9400005,   33.8800011,           0.
     33,   16.5870838,   34.2329178,           0.
     34,   16.2341671,   34.5858345,           0.
     35,   15.8812504,   34.9387512,           0.
     36,   15.5283337,   35.2916679,           0.
     37,   15.1754169,   35.6445847,           0.
     38,   14.8225002,   35.9975014,           0.
     39,   14.4695835,   36.3504181,           0.
     40,   14.1166668,   36.7033348,           0.
     41,   13.7637501,   37.0562515,           0.
     42,   13.4108334,   37.4091682,           0.
     43,   13.0579166,    37.762085,           0.
     44,   12.3520832,    37.762085,           0.
     45,   11.9991665,   37.4091682,           0.
     46,   11.6462498,   37.0562515,           0.
     47,   11.2933331,   36.7033348,           0.
     48,   10.9404163,   36.3504181,           0.
     49,   10.5874996,   35.9975014,           0.
     50,   10.2345829,   35.6445847,           0.
     51,   9.88166714,   35.2916679,           0.
     52,   9.52875042,   34.9387512,           0.
     53,    9.1758337,   34.5858345,           0.
     54,   8.82291698,   34.2329178,           0.
     55,   8.47000027,   33.8800011,           0.
     56,   8.11708355,   33.5270844,           0.
     57,   7.76416683,   33.1741676,           0.
     58,   7.41125011,   32.8212509,           0.
     59,    7.0583334,   32.4683342,           0.
     60,   6.70541668,   32.1154175,           0.
     61,   6.35249996,   31.7625008,           0.
     62,   5.99958324,    31.409584,           0.
     63,   5.64666653,   31.0566673,           0.
     64,   5.29374981,   30.7037506,           0.
     65,   4.94083357,   30.3508339,           0.
     66,   4.58791685,   29.9979172,           0.
     67,   4.23500013,   29.6450005,           0.
     68,   3.88208342,   29.2920837,           0.
     69,    3.5291667,    28.939167,           0.
     70,   3.17624998,   28.5862503,           0.
     71,   2.82333326,   28.2333336,           0.
     72,   2.47041678,   27.8804169,           0.
     73,   2.11750007,   27.5275002,           0.
     74,   1.76458335,   27.1745834,           0.
     75,   1.41166663,   26.8216667,           0.
     76,   1.05875003,     26.46875,           0.
     77,  0.705833316,   26.1158333,           0.
     78,  0.352916658,   25.7629166,           0.
     79,  0.352916658,   25.0570831,           0.
     80,  0.705833316,   24.7041664,           0.
     81,   1.05875003,   24.3512497,           0.
     82,   1.41166663,    23.998333,           0.
     83,   1.76458335,   23.6454163,           0.
     84,   2.11750007,   23.2924995,           0.
     85,   2.47041678,   22.9395828,           0.
     86,   2.82333326,   22.5866661,           0.
     87,   3.17624998,   22.2337494,           0.
     88,    3.5291667,   21.8808327,           0.
     89,   3.88208342,    21.527916,           0.
     90,   4.23500013,   21.1749992,           0.
     91,   4.58791685,   20.8220825,           0.
     92,   4.94083357,   20.4691658,           0.
     93,   5.29374981,   20.1162491,           0.
     94,   5.64666653,   19.7633343,           0.
     95,   5.99958324,   19.4104176,           0.
     96,   6.35249996,   19.0575008,           0.
     97,   6.70541668,   18.7045841,           0.
     98,    7.0583334,   18.3516674,           0.
     99,   7.41125011,   17.9987507,           0.
    100,   7.76416683,    17.645834,           0.
    101,   8.11708355,   17.2929173,           0.
    102,   8.47000027,   16.9400005,           0.
    103,   8.82291698,   16.5870838,           0.
    104,    9.1758337,   16.2341671,           0.
    105,   9.52875042,   15.8812504,           0.
    106,   9.88166714,   15.5283337,           0.
    107,   10.2345829,   15.1754169,           0.
    108,   10.5874996,   14.8225002,           0.
    109,   10.9404163,   14.4695835,           0.
    110,   11.2933331,   14.1166668,           0.
    111,   11.6462498,   13.7637501,           0.
    112,   11.9991665,   13.4108334,           0.
    113,   12.3520832,   13.0579166,           0.
    114,   13.0579166,   13.0579166,           0.
    115,   13.4108334,   13.4108334,           0.
    116,   13.7637501,   13.7637501,           0.
    117,   14.1166668,   14.1166668,           0.
    118,   14.4695835,   14.4695835,           0.
    119,   14.8225002,   14.8225002,           0.
    120,   15.1754169,   15.1754169,           0.
    121,   15.5283337,   15.5283337,           0.
    122,   15.8812504,   15.8812504,           0.
    123,   16.2341671,   16.2341671,           0.
    124,   16.5870838,   16.5870838,           0.
    125,   16.9400005,   16.9400005,           0.
    126,   17.2929173,   17.2929173,           0.
    127,    17.645834,    17.645834,           0.
    128,   17.9987507,   17.9987507,           0.
    129,   18.3516674,   18.3516674,           0.
    130,   18.7045841,   18.7045841,           0.
    131,   19.0575008,   19.0575008,           0.
    132,   19.4104176,   19.4104176,           0.
    133,   19.7633343,   19.7633343,           0.
    134,   20.1162491,   20.1162491,           0.
    135,   20.4691658,   20.4691658,           0.
    136,   20.8220825,   20.8220825,           0.
    137,   21.1749992,   21.1749992,           0.
    138,    21.527916,    21.527916,           0.
    139,   21.8808327,   21.8808327,           0.
    140,   22.2337494,   22.2337494,           0.
    141,   22.5866661,   22.5866661,           0.
    142,   22.9395828,   22.9395828,           0.
    143,   23.2924995,   23.2924995,           0.
    144,   23.6454163,   23.6454163,           0.
    145,    23.998333,    23.998333,           0.
    146,   24.3512497,   24.3512497,           0.
    147,   24.7041664,   24.7041664,           0.
    148,   25.0570831,   25.0570831,           0.
    149,   25.0570831,  0.352916658,           0.
    150,   24.7041664,  0.705833316,           0.
    151,   24.3512497,   1.05875003,           0.
    152,    23.998333,   1.41166663,           0.
    153,   23.6454163,   1.76458335,           0.
    154,   23.2924995,   2.11750007,           0.
    155,   22.9395828,   2.47041678,           0.
    156,   22.5866661,   2.82333326,           0.
    157,   22.2337494,   3.17624998,           0.
    158,   21.8808327,    3.5291667,           0.
    159,    21.527916,   3.88208342,           0.
    160,   21.1749992,   4.23500013,           0.
    161,   20.8220825,   4.58791685,           0.
    162,   20.4691658,   4.94083357,           0.
    163,   20.1162491,   5.29374981,           0.
    164,   19.7633343,   5.64666653,           0.
    165,   19.4104176,   5.99958324,           0.
    166,   19.0575008,   6.35249996,           0.
    167,   18.7045841,   6.70541668,           0.
    168,   18.3516674,    7.0583334,           0.
    169,   17.9987507,   7.41125011,           0.
    170,    17.645834,   7.76416683,           0.
    171,   17.2929173,   8.11708355,           0.
    172,   16.9400005,   8.47000027,           0.
    173,   16.5870838,   8.82291698,           0.
    174,   16.2341671,    9.1758337,           0.
    175,   15.8812504,   9.52875042,           0.
    176,   15.5283337,   9.88166714,           0.
    177,   15.1754169,   10.2345829,           0.
    178,   14.8225002,   10.5874996,           0.
    179,   14.4695835,   10.9404163,           0.
    180,   14.1166668,   11.2933331,           0.
    181,   13.7637501,   11.6462498,           0.
    182,   13.4108334,   11.9991665,           0.
    183,   13.0579166,   12.3520832,           0.
    184,   12.3520832,   12.3520832,           0.
    185,   11.9991665,   11.9991665,           0.
    186,   11.6462498,   11.6462498,           0.
    187,   11.2933331,   11.2933331,           0.
    188,   10.9404163,   10.9404163,           0.
    189,   10.5874996,   10.5874996,           0.
    190,   10.2345829,   10.2345829,           0.
    191,   9.88166714,   9.88166714,           0.
    192,   9.52875042,   9.52875042,           0.
    193,    9.1758337,    9.1758337,           0.
    194,   8.82291698,   8.82291698,           0.
    195,   8.47000027,   8.47000027,           0.
    196,   8.11708355,   8.11708355,           0.
    197,   7.76416683,   7.76416683,           0.
    198,   7.41125011,   7.41125011,           0.
    199,    7.0583334,    7.0583334,           0.
    200,   6.70541668,   6.70541668,           0.
    201,   6.35249996,   6.35249996,           0.
    202,   5.99958324,   5.99958324,           0.
    203,   5.64666653,   5.64666653,           0.
    204,   5.29374981,   5.29374981,           0.
    205,   4.94083357,   4.94083357,           0.
    206,   4.58791685,   4.58791685,           0.
    207,   4.23500013,   4.23500013,           0.
    208,   3.88208342,   3.88208342,           0.
    209,    3.5291667,    3.5291667,           0.
    210,   3.17624998,   3.17624998,           0.
    211,   2.82333326,   2.82333326,           0.
    212,   2.47041678,   2.47041678,           0.
    213,   2.11750007,   2.11750007,           0.
    214,   1.76458335,   1.76458335,           0.
    215,   1.41166663,   1.41166663,           0.
    216,   1.05875003,   1.05875003,           0.
    217,  0.705833316,  0.705833316,           0.
    218,  0.352916658,  0.352916658,           0.
    219,  0.498235285,           0.,           0.
    220,  0.996470571,           0.,           0.
    221,   1.49470592,           0.,           0.
    222,   1.99294114,           0.,           0.
    223,   2.49117637,           0.,           0.
    224,   2.98941183,           0.,           0.
    225,   3.48764706,           0.,           0.
    226,   3.98588228,           0.,           0.
    227,   4.48411751,           0.,           0.
    228,   4.98235273,           0.,           0.
    229,   5.48058844,           0.,           0.
    230,   5.97882366,           0.,           0.
    231,   6.47705889,           0.,           0.
    232,   6.97529411,           0.,           0.
    233,   7.47352934,           0.,           0.
    234,   7.97176456,           0.,           0.
    235,   8.47000027,           0.,           0.
    236,   8.96823502,           0.,           0.
    237,   9.46647072,           0.,           0.
    238,   9.96470547,           0.,           0.
    239,   10.4629412,           0.,           0.
    240,   10.9611769,           0.,           0.
    241,   11.4594116,           0.,           0.
    242,   11.9576473,           0.,           0.
    243,   12.4558821,           0.,           0.
    244,   12.9541178,           0.,           0.
    245,   13.4523525,           0.,           0.
    246,   13.9505882,           0.,           0.
    247,   14.4488239,           0.,           0.
    248,   14.9470587,           0.,           0.
    249,   15.4452944,           0.,           0.
    250,   15.9435291,           0.,           0.
    251,   16.4417648,           0.,           0.
    252,   16.9400005,           0.,           0.
    253,   17.4382362,           0.,           0.
    254,     17.93647,           0.,           0.
    255,   18.4347057,           0.,           0.
    256,   18.9329414,           0.,           0.
    257,   19.4311771,           0.,           0.
    258,   19.9294109,           0.,           0.
    259,   20.4276466,           0.,           0.
    260,   20.9258823,           0.,           0.
    261,    21.424118,           0.,           0.
    262,   21.9223537,           0.,           0.
    263,   22.4205875,           0.,           0.
    264,   22.9188232,           0.,           0.
    265,   23.4170589,           0.,           0.
    266,   23.9152946,           0.,           0.
    267,   24.4135303,           0.,           0.
    268,   24.9117641,           0.,           0.
    269,  0.352916658,    50.467083,           0.
    270,  0.705833316,   50.1141663,           0.
    271,   1.05875003,   49.7612495,           0.
    272,   1.41166663,   49.4083328,           0.
    273,   1.76458335,   49.0554161,           0.
    274,   2.11750007,   48.7024994,           0.
    275,   2.47041678,   48.3495827,           0.
    276,   2.82333326,    47.996666,           0.
    277,   3.17624998,   47.6437492,           0.
    278,    3.5291667,   47.2908325,           0.
    279,   3.88208342,   46.9379158,           0.
    280,   4.23500013,   46.5849991,           0.
    281,   4.58791685,   46.2320824,           0.
    282,   4.94083357,   45.8791656,           0.
    283,   5.29374981,   45.5262489,           0.
    284,   5.64666653,   45.1733322,           0.
    285,   5.99958324,   44.8204155,           0.
    286,   6.35249996,   44.4674988,           0.
    287,   6.70541668,   44.1145821,           0.
    288,    7.0583334,   43.7616653,           0.
    289,   7.41125011,   43.4087486,           0.
    290,   7.76416683,   43.0558319,           0.
    291,   8.11708355,   42.7029152,           0.
    292,   8.47000027,   42.3499985,           0.
    293,   8.82291698,   41.9970818,           0.
    294,    9.1758337,    41.644165,           0.
    295,   9.52875042,   41.2912483,           0.
    296,   9.88166714,   40.9383316,           0.
    297,   10.2345829,   40.5854149,           0.
    298,   10.5874996,   40.2324982,           0.
    299,   10.9404163,   39.8795815,           0.
    300,   11.2933331,   39.5266685,           0.
    301,   11.6462498,   39.1737518,           0.
    302,   11.9991665,   38.8208351,           0.
    303,   12.3520832,   38.4679184,           0.
    304,   13.0579166,   38.4679184,           0.
    305,   13.4108334,   38.8208351,           0.
    306,   13.7637501,   39.1737518,           0.
    307,   14.1166668,   39.5266685,           0.
    308,   14.4695835,   39.8795815,           0.
    309,   14.8225002,   40.2324982,           0.
    310,   15.1754169,   40.5854149,           0.
    311,   15.5283337,   40.9383316,           0.
    312,   15.8812504,   41.2912483,           0.
    313,   16.2341671,    41.644165,           0.
    314,   16.5870838,   41.9970818,           0.
    315,   16.9400005,   42.3499985,           0.
    316,   17.2929173,   42.7029152,           0.
    317,    17.645834,   43.0558319,           0.
    318,   17.9987507,   43.4087486,           0.
    319,   18.3516674,   43.7616653,           0.
    320,   18.7045841,   44.1145821,           0.
    321,   19.0575008,   44.4674988,           0.
    322,   19.4104176,   44.8204155,           0.
    323,   19.7633343,   45.1733322,           0.
    324,   20.1162491,   45.5262489,           0.
    325,   20.4691658,   45.8791656,           0.
    326,   20.8220825,   46.2320824,           0.
    327,   21.1749992,   46.5849991,           0.
    328,    21.527916,   46.9379158,           0.
    329,   21.8808327,   47.2908325,           0.
    330,   22.2337494,   47.6437492,           0.
    331,   22.5866661,    47.996666,           0.
    332,   22.9395828,   48.3495827,           0.
    333,   23.2924995,   48.7024994,           0.
    334,   23.6454163,   49.0554161,           0.
    335,    23.998333,   49.4083328,           0.
    336,   24.3512497,   49.7612495,           0.
    337,   24.7041664,   50.1141663,           0.
    338,   25.0570831,    50.467083,           0.
    339,   24.9117641,   50.8199997,           0.
    340,   24.4135303,   50.8199997,           0.
    341,   23.9152946,   50.8199997,           0.
    342,   23.4170589,   50.8199997,           0.
    343,   22.9188232,   50.8199997,           0.
    344,   22.4205875,   50.8199997,           0.
    345,   21.9223537,   50.8199997,           0.
    346,    21.424118,   50.8199997,           0.
    347,   20.9258823,   50.8199997,           0.
    348,   20.4276466,   50.8199997,           0.
    349,   19.9294109,   50.8199997,           0.
    350,   19.4311771,   50.8199997,           0.
    351,   18.9329414,   50.8199997,           0.
    352,   18.4347057,   50.8199997,           0.
    353,     17.93647,   50.8199997,           0.
    354,   17.4382362,   50.8199997,           0.
    355,   16.9400005,   50.8199997,           0.
    356,   16.4417648,   50.8199997,           0.
    357,   15.9435291,   50.8199997,           0.
    358,   15.4452944,   50.8199997,           0.
    359,   14.9470587,   50.8199997,           0.
    360,   14.4488239,   50.8199997,           0.
    361,   13.9505882,   50.8199997,           0.
    362,   13.4523525,   50.8199997,           0.
    363,   12.9541178,   50.8199997,           0.
    364,   12.4558821,   50.8199997,           0.
    365,   11.9576473,   50.8199997,           0.
    366,   11.4594116,   50.8199997,           0.
    367,   10.9611769,   50.8199997,           0.
    368,   10.4629412,   50.8199997,           0.
    369,   9.96470547,   50.8199997,           0.
    370,   9.46647072,   50.8199997,           0.
    371,   8.96823502,   50.8199997,           0.
    372,   8.47000027,   50.8199997,           0.
    373,   7.97176456,   50.8199997,           0.
    374,   7.47352934,   50.8199997,           0.
    375,   6.97529411,   50.8199997,           0.
    376,   6.47705889,   50.8199997,           0.
    377,   5.97882366,   50.8199997,           0.
    378,   5.48058844,   50.8199997,           0.
    379,   4.98235273,   50.8199997,           0.
    380,   4.48411751,   50.8199997,           0.
    381,   3.98588228,   50.8199997,           0.
    382,   3.48764706,   50.8199997,           0.
    383,   2.98941183,   50.8199997,           0.
    384,   2.49117637,   50.8199997,           0.
    385,   1.99294114,   50.8199997,           0.
    386,   1.49470592,   50.8199997,           0.
    387,  0.996470571,   50.8199997,           0.
    388,  0.498235285,   50.8199997,           0.
    389,   25.4099998,  0.498235285,           0.
    390,   25.4099998,  0.996470571,           0.
    391,   25.4099998,   1.49470592,           0.
    392,   25.4099998,   1.99294114,           0.
    393,   25.4099998,   2.49117637,           0.
    394,   25.4099998,   2.98941183,           0.
    395,   25.4099998,   3.48764706,           0.
    396,   25.4099998,   3.98588228,           0.
    397,   25.4099998,   4.48411751,           0.
    398,   25.4099998,   4.98235273,           0.
    399,   25.4099998,   5.48058844,           0.
    400,   25.4099998,   5.97882366,           0.
    401,   25.4099998,   6.47705889,           0.
    402,   25.4099998,   6.97529411,           0.
    403,   25.4099998,   7.47352934,           0.
    404,   25.4099998,   7.97176456,           0.
    405,   25.4099998,   8.47000027,           0.
    406,   25.4099998,   8.96823502,           0.
    407,   25.4099998,   9.46647072,           0.
    408,   25.4099998,   9.96470547,           0.
    409,   25.4099998,   10.4629412,           0.
    410,   25.4099998,   10.9611769,           0.
    411,   25.4099998,   11.4594116,           0.
    412,   25.4099998,   11.9576473,           0.
    413,   25.4099998,   12.4558821,           0.
    414,   25.4099998,   12.9541178,           0.
    415,   25.4099998,   13.4523525,           0.
    416,   25.4099998,   13.9505882,           0.
    417,   25.4099998,   14.4488239,           0.
    418,   25.4099998,   14.9470587,           0.
    419,   25.4099998,   15.4452944,           0.
    420,   25.4099998,   15.9435291,           0.
    421,   25.4099998,   16.4417648,           0.
    422,   25.4099998,   16.9400005,           0.
    423,   25.4099998,   17.4382362,           0.
    424,   25.4099998,     17.93647,           0.
    425,   25.4099998,   18.4347057,           0.
    426,   25.4099998,   18.9329414,           0.
    427,   25.4099998,   19.4311771,           0.
    428,   25.4099998,   19.9294109,           0.
    429,   25.4099998,   20.4276466,           0.
    430,   25.4099998,   20.9258823,           0.
    431,   25.4099998,    21.424118,           0.
    432,   25.4099998,   21.9223537,           0.
    433,   25.4099998,   22.4205875,           0.
    434,   25.4099998,   22.9188232,           0.
    435,   25.4099998,   23.4170589,           0.
    436,   25.4099998,   23.9152946,           0.
    437,   25.4099998,   24.4135303,           0.
    438,   25.4099998,   24.9117641,           0.
    439,           0.,   24.9117641,           0.
    440,           0.,   24.4135303,           0.
    441,           0.,   23.9152946,           0.
    442,           0.,   23.4170589,           0.
    443,           0.,   22.9188232,           0.
    444,           0.,   22.4205875,           0.
    445,           0.,   21.9223537,           0.
    446,           0.,    21.424118,           0.
    447,           0.,   20.9258823,           0.
    448,           0.,   20.4276466,           0.
    449,           0.,   19.9294109,           0.
    450,           0.,   19.4311771,           0.
    451,           0.,   18.9329414,           0.
    452,           0.,   18.4347057,           0.
    453,           0.,     17.93647,           0.
    454,           0.,   17.4382362,           0.
    455,           0.,   16.9400005,           0.
    456,           0.,   16.4417648,           0.
    457,           0.,   15.9435291,           0.
    458,           0.,   15.4452944,           0.
    459,           0.,   14.9470587,           0.
    460,           0.,   14.4488239,           0.
    461,           0.,   13.9505882,           0.
    462,           0.,   13.4523525,           0.
    463,           0.,   12.9541178,           0.
    464,           0.,   12.4558821,           0.
    465,           0.,   11.9576473,           0.
    466,           0.,   11.4594116,           0.
    467,           0.,   10.9611769,           0.
    468,           0.,   10.4629412,           0.
    469,           0.,   9.96470547,           0.
    470,           0.,   9.46647072,           0.
    471,           0.,   8.96823502,           0.
    472,           0.,   8.47000027,           0.
    473,           0.,   7.97176456,           0.
    474,           0.,   7.47352934,           0.
    475,           0.,   6.97529411,           0.
    476,           0.,   6.47705889,           0.
    477,           0.,   5.97882366,           0.
    478,           0.,   5.48058844,           0.
    479,           0.,   4.98235273,           0.
    480,           0.,   4.48411751,           0.
    481,           0.,   3.98588228,           0.
    482,           0.,   3.48764706,           0.
    483,           0.,   2.98941183,           0.
    484,           0.,   2.49117637,           0.
    485,           0.,   1.99294114,           0.
    486,           0.,   1.49470592,           0.
    487,           0.,  0.996470571,           0.
    488,           0.,  0.498235285,           0.
    489,           0.,   50.3217659,           0.
    490,           0.,   49.8235283,           0.
    491,           0.,   49.3252945,           0.
    492,           0.,   48.8270607,           0.
    493,           0.,   48.3288231,           0.
    494,           0.,   47.8305893,           0.
    495,           0.,   47.3323517,           0.
    496,           0.,   46.8341179,           0.
    497,           0.,   46.3358841,           0.
    498,           0.,   45.8376465,           0.
    499,           0.,   45.3394127,           0.
    500,           0.,   44.8411751,           0.
    501,           0.,   44.3429413,           0.
    502,           0.,   43.8447075,           0.
    503,           0.,   43.3464699,           0.
    504,           0.,   42.8482361,           0.
    505,           0.,   42.3499985,           0.
    506,           0.,   41.8517647,           0.
    507,           0.,   41.3535309,           0.
    508,           0.,   40.8552933,           0.
    509,           0.,   40.3570595,           0.
    510,           0.,   39.8588219,           0.
    511,           0.,   39.3605881,           0.
    512,           0.,   38.8623543,           0.
    513,           0.,   38.3641167,           0.
    514,           0.,   37.8658829,           0.
    515,           0.,   37.3676453,           0.
    516,           0.,   36.8694115,           0.
    517,           0.,   36.3711777,           0.
    518,           0.,   35.8729401,           0.
    519,           0.,   35.3747063,           0.
    520,           0.,   34.8764725,           0.
    521,           0.,   34.3782349,           0.
    522,           0.,   33.8800011,           0.
    523,           0.,   33.3817635,           0.
    524,           0.,   32.8835297,           0.
    525,           0.,   32.3852959,           0.
    526,           0.,   31.8870583,           0.
    527,           0.,   31.3888245,           0.
    528,           0.,   30.8905888,           0.
    529,           0.,   30.3923531,           0.
    530,           0.,   29.8941174,           0.
    531,           0.,   29.3958817,           0.
    532,           0.,   28.8976479,           0.
    533,           0.,   28.3994122,           0.
    534,           0.,   27.9011765,           0.
    535,           0.,   27.4029408,           0.
    536,           0.,    26.904705,           0.
    537,           0.,   26.4064713,           0.
    538,           0.,   25.9082355,           0.
    539,   25.4099998,   25.9082355,           0.
    540,   25.4099998,   26.4064713,           0.
    541,   25.4099998,    26.904705,           0.
    542,   25.4099998,   27.4029408,           0.
    543,   25.4099998,   27.9011765,           0.
    544,   25.4099998,   28.3994122,           0.
    545,   25.4099998,   28.8976479,           0.
    546,   25.4099998,   29.3958817,           0.
    547,   25.4099998,   29.8941174,           0.
    548,   25.4099998,   30.3923531,           0.
    549,   25.4099998,   30.8905888,           0.
    550,   25.4099998,   31.3888245,           0.
    551,   25.4099998,   31.8870583,           0.
    552,   25.4099998,   32.3852959,           0.
    553,   25.4099998,   32.8835297,           0.
    554,   25.4099998,   33.3817635,           0.
    555,   25.4099998,   33.8800011,           0.
    556,   25.4099998,   34.3782349,           0.
    557,   25.4099998,   34.8764725,           0.
    558,   25.4099998,   35.3747063,           0.
    559,   25.4099998,   35.8729401,           0.
    560,   25.4099998,   36.3711777,           0.
    561,   25.4099998,   36.8694115,           0.
    562,   25.4099998,   37.3676453,           0.
    563,   25.4099998,   37.8658829,           0.
    564,   25.4099998,   38.3641167,           0.
    565,   25.4099998,   38.8623543,           0.
    566,   25.4099998,   39.3605881,           0.
    567,   25.4099998,   39.8588219,           0.
    568,   25.4099998,   40.3570595,           0.
    569,   25.4099998,   40.8552933,           0.
    570,   25.4099998,   41.3535309,           0.
    571,   25.4099998,   41.8517647,           0.
    572,   25.4099998,   42.3499985,           0.
    573,   25.4099998,   42.8482361,           0.
    574,   25.4099998,   43.3464699,           0.
    575,   25.4099998,   43.8447075,           0.
    576,   25.4099998,   44.3429413,           0.
    577,   25.4099998,   44.8411751,           0.
    578,   25.4099998,   45.3394127,           0.
    579,   25.4099998,   45.8376465,           0.
    580,   25.4099998,   46.3358841,           0.
    581,   25.4099998,   46.8341179,           0.
    582,   25.4099998,   47.3323517,           0.
    583,   25.4099998,   47.8305893,           0.
    584,   25.4099998,   48.3288231,           0.
    585,   25.4099998,   48.8270607,           0.
    586,   25.4099998,   49.3252945,           0.
    587,   25.4099998,   49.8235283,           0.
    588,   25.4099998,   50.3217659,           0.
    589,   24.7041664,   25.4099998,           0.
    590,   24.3512497,   25.7629166,           0.
    591,    23.998333,   26.1158333,           0.
    592,   23.6454163,     26.46875,           0.
    593,   23.2924995,   26.8216667,           0.
    594,   22.9395828,   27.1745834,           0.
    595,   22.5866661,   27.5275002,           0.
    596,   22.2337494,   27.8804169,           0.
    597,   21.8808327,   28.2333336,           0.
    598,    21.527916,   28.5862503,           0.
    599,   21.1749992,    28.939167,           0.
    600,   20.8220825,   29.2920837,           0.
    601,   20.4691658,   29.6450005,           0.
    602,   20.1162491,   29.9979172,           0.
    603,   19.7633343,   30.3508339,           0.
    604,   19.4104176,   30.7037506,           0.
    605,   19.0575008,   31.0566673,           0.
    606,   18.7045841,    31.409584,           0.
    607,   18.3516674,   31.7625008,           0.
    608,   17.9987507,   32.1154175,           0.
    609,    17.645834,   32.4683342,           0.
    610,   17.2929173,   32.8212509,           0.
    611,   16.9400005,   33.1741676,           0.
    612,   16.5870838,   33.5270844,           0.
    613,   16.2341671,   33.8800011,           0.
    614,   15.8812504,   34.2329178,           0.
    615,   15.5283337,   34.5858345,           0.
    616,   15.1754169,   34.9387512,           0.
    617,   14.8225002,   35.2916679,           0.
    618,   14.4695835,   35.6445847,           0.
    619,   14.1166668,   35.9975014,           0.
    620,   13.7637501,   36.3504181,           0.
    621,   13.4108334,   36.7033348,           0.
    622,   13.0579166,   37.0562515,           0.
    623,   12.7049999,   37.4091682,           0.
    624,   24.3512497,   25.0570831,           0.
    625,    23.998333,   25.4099998,           0.
    626,   23.6454163,   25.7629166,           0.
    627,   23.2924995,   26.1158333,           0.
    628,   22.9395828,     26.46875,           0.
    629,   22.5866661,   26.8216667,           0.
    630,   22.2337494,   27.1745834,           0.
    631,   21.8808327,   27.5275002,           0.
    632,    21.527916,   27.8804169,           0.
    633,   21.1749992,   28.2333336,           0.
    634,   20.8220825,   28.5862503,           0.
    635,   20.4691658,    28.939167,           0.
    636,   20.1162491,   29.2920837,           0.
    637,   19.7633343,   29.6450005,           0.
    638,   19.4104176,   29.9979172,           0.
    639,   19.0575008,   30.3508339,           0.
    640,   18.7045841,   30.7037506,           0.
    641,   18.3516674,   31.0566673,           0.
    642,   17.9987507,    31.409584,           0.
    643,    17.645834,   31.7625008,           0.
    644,   17.2929173,   32.1154175,           0.
    645,   16.9400005,   32.4683342,           0.
    646,   16.5870838,   32.8212509,           0.
    647,   16.2341671,   33.1741676,           0.
    648,   15.8812504,   33.5270844,           0.
    649,   15.5283337,   33.8800011,           0.
    650,   15.1754169,   34.2329178,           0.
    651,   14.8225002,   34.5858345,           0.
    652,   14.4695835,   34.9387512,           0.
    653,   14.1166668,   35.2916679,           0.
    654,   13.7637501,   35.6445847,           0.
    655,   13.4108334,   35.9975014,           0.
    656,   13.0579166,   36.3504181,           0.
    657,   12.7049999,   36.7033348,           0.
    658,   12.3520832,   37.0562515,           0.
    659,    23.998333,   24.7041664,           0.
    660,   23.6454163,   25.0570831,           0.
    661,   23.2924995,   25.4099998,           0.
    662,   22.9395828,   25.7629166,           0.
    663,   22.5866661,   26.1158333,           0.
    664,   22.2337494,     26.46875,           0.
    665,   21.8808327,   26.8216667,           0.
    666,    21.527916,   27.1745834,           0.
    667,   21.1749992,   27.5275002,           0.
    668,   20.8220825,   27.8804169,           0.
    669,   20.4691658,   28.2333336,           0.
    670,   20.1162491,   28.5862503,           0.
    671,   19.7633343,    28.939167,           0.
    672,   19.4104176,   29.2920837,           0.
    673,   19.0575008,   29.6450005,           0.
    674,   18.7045841,   29.9979172,           0.
    675,   18.3516674,   30.3508339,           0.
    676,   17.9987507,   30.7037506,           0.
    677,    17.645834,   31.0566673,           0.
    678,   17.2929173,    31.409584,           0.
    679,   16.9400005,   31.7625008,           0.
    680,   16.5870838,   32.1154175,           0.
    681,   16.2341671,   32.4683342,           0.
    682,   15.8812504,   32.8212509,           0.
    683,   15.5283337,   33.1741676,           0.
    684,   15.1754169,   33.5270844,           0.
    685,   14.8225002,   33.8800011,           0.
    686,   14.4695835,   34.2329178,           0.
    687,   14.1166668,   34.5858345,           0.
    688,   13.7637501,   34.9387512,           0.
    689,   13.4108334,   35.2916679,           0.
    690,   13.0579166,   35.6445847,           0.
    691,   12.7049999,   35.9975014,           0.
    692,   12.3520832,   36.3504181,           0.
    693,   11.9991665,   36.7033348,           0.
    694,   23.6454163,   24.3512497,           0.
    695,   23.2924995,   24.7041664,           0.
    696,   22.9395828,   25.0570831,           0.
    697,   22.5866661,   25.4099998,           0.
    698,   22.2337494,   25.7629166,           0.
    699,   21.8808327,   26.1158333,           0.
    700,    21.527916,     26.46875,           0.
    701,   21.1749992,   26.8216667,           0.
    702,   20.8220825,   27.1745834,           0.
    703,   20.4691658,   27.5275002,           0.
    704,   20.1162491,   27.8804169,           0.
    705,   19.7633343,   28.2333336,           0.
    706,   19.4104176,   28.5862503,           0.
    707,   19.0575008,    28.939167,           0.
    708,   18.7045841,   29.2920837,           0.
    709,   18.3516674,   29.6450005,           0.
    710,   17.9987507,   29.9979172,           0.
    711,    17.645834,   30.3508339,           0.
    712,   17.2929173,   30.7037506,           0.
    713,   16.9400005,   31.0566673,           0.
    714,   16.5870838,    31.409584,           0.
    715,   16.2341671,   31.7625008,           0.
    716,   15.8812504,   32.1154175,           0.
    717,   15.5283337,   32.4683342,           0.
    718,   15.1754169,   32.8212509,           0.
    719,   14.8225002,   33.1741676,           0.
    720,   14.4695835,   33.5270844,           0.
    721,   14.1166668,   33.8800011,           0.
    722,   13.7637501,   34.2329178,           0.
    723,   13.4108334,   34.5858345,           0.
    724,   13.0579166,   34.9387512,           0.
    725,   12.7049999,   35.2916679,           0.
    726,   12.3520832,   35.6445847,           0.
    727,   11.9991665,   35.9975014,           0.
    728,   11.6462498,   36.3504181,           0.
    729,   23.2924995,    23.998333,           0.
    730,   22.9395828,   24.3512497,           0.
    731,   22.5866661,   24.7041664,           0.
    732,   22.2337494,   25.0570831,           0.
    733,   21.8808327,   25.4099998,           0.
    734,    21.527916,   25.7629166,           0.
    735,   21.1749992,   26.1158333,           0.
    736,   20.8220825,     26.46875,           0.
    737,   20.4691658,   26.8216667,           0.
    738,   20.1162491,   27.1745834,           0.
    739,   19.7633343,   27.5275002,           0.
    740,   19.4104176,   27.8804169,           0.
    741,   19.0575008,   28.2333336,           0.
    742,   18.7045841,   28.5862503,           0.
    743,   18.3516674,    28.939167,           0.
    744,   17.9987507,   29.2920837,           0.
    745,    17.645834,   29.6450005,           0.
    746,   17.2929173,   29.9979172,           0.
    747,   16.9400005,   30.3508339,           0.
    748,   16.5870838,   30.7037506,           0.
    749,   16.2341671,   31.0566673,           0.
    750,   15.8812504,    31.409584,           0.
    751,   15.5283337,   31.7625008,           0.
    752,   15.1754169,   32.1154175,           0.
    753,   14.8225002,   32.4683342,           0.
    754,   14.4695835,   32.8212509,           0.
    755,   14.1166668,   33.1741676,           0.
    756,   13.7637501,   33.5270844,           0.
    757,   13.4108334,   33.8800011,           0.
    758,   13.0579166,   34.2329178,           0.
    759,   12.7049999,   34.5858345,           0.
    760,   12.3520832,   34.9387512,           0.
    761,   11.9991665,   35.2916679,           0.
    762,   11.6462498,   35.6445847,           0.
    763,   11.2933331,   35.9975014,           0.
    764,   22.9395828,   23.6454163,           0.
    765,   22.5866661,    23.998333,           0.
    766,   22.2337494,   24.3512497,           0.
    767,   21.8808327,   24.7041664,           0.
    768,    21.527916,   25.0570831,           0.
    769,   21.1749992,   25.4099998,           0.
    770,   20.8220825,   25.7629166,           0.
    771,   20.4691658,   26.1158333,           0.
    772,   20.1162491,     26.46875,           0.
    773,   19.7633343,   26.8216667,           0.
    774,   19.4104176,   27.1745834,           0.
    775,   19.0575008,   27.5275002,           0.
    776,   18.7045841,   27.8804169,           0.
    777,   18.3516674,   28.2333336,           0.
    778,   17.9987507,   28.5862503,           0.
    779,    17.645834,    28.939167,           0.
    780,   17.2929173,   29.2920837,           0.
    781,   16.9400005,   29.6450005,           0.
    782,   16.5870838,   29.9979172,           0.
    783,   16.2341671,   30.3508339,           0.
    784,   15.8812504,   30.7037506,           0.
    785,   15.5283337,   31.0566673,           0.
    786,   15.1754169,    31.409584,           0.
    787,   14.8225002,   31.7625008,           0.
    788,   14.4695835,   32.1154175,           0.
    789,   14.1166668,   32.4683342,           0.
    790,   13.7637501,   32.8212509,           0.
    791,   13.4108334,   33.1741676,           0.
    792,   13.0579166,   33.5270844,           0.
    793,   12.7049999,   33.8800011,           0.
    794,   12.3520832,   34.2329178,           0.
    795,   11.9991665,   34.5858345,           0.
    796,   11.6462498,   34.9387512,           0.
    797,   11.2933331,   35.2916679,           0.
    798,   10.9404163,   35.6445847,           0.
    799,   22.5866661,   23.2924995,           0.
    800,   22.2337494,   23.6454163,           0.
    801,   21.8808327,    23.998333,           0.
    802,    21.527916,   24.3512497,           0.
    803,   21.1749992,   24.7041664,           0.
    804,   20.8220825,   25.0570831,           0.
    805,   20.4691658,   25.4099998,           0.
    806,   20.1162491,   25.7629166,           0.
    807,   19.7633343,   26.1158333,           0.
    808,   19.4104176,     26.46875,           0.
    809,   19.0575008,   26.8216667,           0.
    810,   18.7045841,   27.1745834,           0.
    811,   18.3516674,   27.5275002,           0.
    812,   17.9987507,   27.8804169,           0.
    813,    17.645834,   28.2333336,           0.
    814,   17.2929173,   28.5862503,           0.
    815,   16.9400005,    28.939167,           0.
    816,   16.5870838,   29.2920837,           0.
    817,   16.2341671,   29.6450005,           0.
    818,   15.8812504,   29.9979172,           0.
    819,   15.5283337,   30.3508339,           0.
    820,   15.1754169,   30.7037506,           0.
    821,   14.8225002,   31.0566673,           0.
    822,   14.4695835,    31.409584,           0.
    823,   14.1166668,   31.7625008,           0.
    824,   13.7637501,   32.1154175,           0.
    825,   13.4108334,   32.4683342,           0.
    826,   13.0579166,   32.8212509,           0.
    827,   12.7049999,   33.1741676,           0.
    828,   12.3520832,   33.5270844,           0.
    829,   11.9991665,   33.8800011,           0.
    830,   11.6462498,   34.2329178,           0.
    831,   11.2933331,   34.5858345,           0.
    832,   10.9404163,   34.9387512,           0.
    833,   10.5874996,   35.2916679,           0.
    834,   22.2337494,   22.9395828,           0.
    835,   21.8808327,   23.2924995,           0.
    836,    21.527916,   23.6454163,           0.
    837,   21.1749992,    23.998333,           0.
    838,   20.8220825,   24.3512497,           0.
    839,   20.4691658,   24.7041664,           0.
    840,   20.1162491,   25.0570831,           0.
    841,   19.7633343,   25.4099998,           0.
    842,   19.4104176,   25.7629166,           0.
    843,   19.0575008,   26.1158333,           0.
    844,   18.7045841,     26.46875,           0.
    845,   18.3516674,   26.8216667,           0.
    846,   17.9987507,   27.1745834,           0.
    847,    17.645834,   27.5275002,           0.
    848,   17.2929173,   27.8804169,           0.
    849,   16.9400005,   28.2333336,           0.
    850,   16.5870838,   28.5862503,           0.
    851,   16.2341671,    28.939167,           0.
    852,   15.8812504,   29.2920837,           0.
    853,   15.5283337,   29.6450005,           0.
    854,   15.1754169,   29.9979172,           0.
    855,   14.8225002,   30.3508339,           0.
    856,   14.4695835,   30.7037506,           0.
    857,   14.1166668,   31.0566673,           0.
    858,   13.7637501,    31.409584,           0.
    859,   13.4108334,   31.7625008,           0.
    860,   13.0579166,   32.1154175,           0.
    861,   12.7049999,   32.4683342,           0.
    862,   12.3520832,   32.8212509,           0.
    863,   11.9991665,   33.1741676,           0.
    864,   11.6462498,   33.5270844,           0.
    865,   11.2933331,   33.8800011,           0.
    866,   10.9404163,   34.2329178,           0.
    867,   10.5874996,   34.5858345,           0.
    868,   10.2345829,   34.9387512,           0.
    869,   21.8808327,   22.5866661,           0.
    870,    21.527916,   22.9395828,           0.
    871,   21.1749992,   23.2924995,           0.
    872,   20.8220825,   23.6454163,           0.
    873,   20.4691658,    23.998333,           0.
    874,   20.1162491,   24.3512497,           0.
    875,   19.7633343,   24.7041664,           0.
    876,   19.4104176,   25.0570831,           0.
    877,   19.0575008,   25.4099998,           0.
    878,   18.7045841,   25.7629166,           0.
    879,   18.3516674,   26.1158333,           0.
    880,   17.9987507,     26.46875,           0.
    881,    17.645834,   26.8216667,           0.
    882,   17.2929173,   27.1745834,           0.
    883,   16.9400005,   27.5275002,           0.
    884,   16.5870838,   27.8804169,           0.
    885,   16.2341671,   28.2333336,           0.
    886,   15.8812504,   28.5862503,           0.
    887,   15.5283337,    28.939167,           0.
    888,   15.1754169,   29.2920837,           0.
    889,   14.8225002,   29.6450005,           0.
    890,   14.4695835,   29.9979172,           0.
    891,   14.1166668,   30.3508339,           0.
    892,   13.7637501,   30.7037506,           0.
    893,   13.4108334,   31.0566673,           0.
    894,   13.0579166,    31.409584,           0.
    895,   12.7049999,   31.7625008,           0.
    896,   12.3520832,   32.1154175,           0.
    897,   11.9991665,   32.4683342,           0.
    898,   11.6462498,   32.8212509,           0.
    899,   11.2933331,   33.1741676,           0.
    900,   10.9404163,   33.5270844,           0.
    901,   10.5874996,   33.8800011,           0.
    902,   10.2345829,   34.2329178,           0.
    903,   9.88166714,   34.5858345,           0.
    904,    21.527916,   22.2337494,           0.
    905,   21.1749992,   22.5866661,           0.
    906,   20.8220825,   22.9395828,           0.
    907,   20.4691658,   23.2924995,           0.
    908,   20.1162491,   23.6454163,           0.
    909,   19.7633343,    23.998333,           0.
    910,   19.4104176,   24.3512497,           0.
    911,   19.0575008,   24.7041664,           0.
    912,   18.7045841,   25.0570831,           0.
    913,   18.3516674,   25.4099998,           0.
    914,   17.9987507,   25.7629166,           0.
    915,    17.645834,   26.1158333,           0.
    916,   17.2929173,     26.46875,           0.
    917,   16.9400005,   26.8216667,           0.
    918,   16.5870838,   27.1745834,           0.
    919,   16.2341671,   27.5275002,           0.
    920,   15.8812504,   27.8804169,           0.
    921,   15.5283337,   28.2333336,           0.
    922,   15.1754169,   28.5862503,           0.
    923,   14.8225002,    28.939167,           0.
    924,   14.4695835,   29.2920837,           0.
    925,   14.1166668,   29.6450005,           0.
    926,   13.7637501,   29.9979172,           0.
    927,   13.4108334,   30.3508339,           0.
    928,   13.0579166,   30.7037506,           0.
    929,   12.7049999,   31.0566673,           0.
    930,   12.3520832,    31.409584,           0.
    931,   11.9991665,   31.7625008,           0.
    932,   11.6462498,   32.1154175,           0.
    933,   11.2933331,   32.4683342,           0.
    934,   10.9404163,   32.8212509,           0.
    935,   10.5874996,   33.1741676,           0.
    936,   10.2345829,   33.5270844,           0.
    937,   9.88166714,   33.8800011,           0.
    938,   9.52875042,   34.2329178,           0.
    939,   21.1749992,   21.8808327,           0.
    940,   20.8220825,   22.2337494,           0.
    941,   20.4691658,   22.5866661,           0.
    942,   20.1162491,   22.9395828,           0.
    943,   19.7633343,   23.2924995,           0.
    944,   19.4104176,   23.6454163,           0.
    945,   19.0575008,    23.998333,           0.
    946,   18.7045841,   24.3512497,           0.
    947,   18.3516674,   24.7041664,           0.
    948,   17.9987507,   25.0570831,           0.
    949,    17.645834,   25.4099998,           0.
    950,   17.2929173,   25.7629166,           0.
    951,   16.9400005,   26.1158333,           0.
    952,   16.5870838,     26.46875,           0.
    953,   16.2341671,   26.8216667,           0.
    954,   15.8812504,   27.1745834,           0.
    955,   15.5283337,   27.5275002,           0.
    956,   15.1754169,   27.8804169,           0.
    957,   14.8225002,   28.2333336,           0.
    958,   14.4695835,   28.5862503,           0.
    959,   14.1166668,    28.939167,           0.
    960,   13.7637501,   29.2920837,           0.
    961,   13.4108334,   29.6450005,           0.
    962,   13.0579166,   29.9979172,           0.
    963,   12.7049999,   30.3508339,           0.
    964,   12.3520832,   30.7037506,           0.
    965,   11.9991665,   31.0566673,           0.
    966,   11.6462498,    31.409584,           0.
    967,   11.2933331,   31.7625008,           0.
    968,   10.9404163,   32.1154175,           0.
    969,   10.5874996,   32.4683342,           0.
    970,   10.2345829,   32.8212509,           0.
    971,   9.88166714,   33.1741676,           0.
    972,   9.52875042,   33.5270844,           0.
    973,    9.1758337,   33.8800011,           0.
    974,   20.8220825,    21.527916,           0.
    975,   20.4691658,   21.8808327,           0.
    976,   20.1162491,   22.2337494,           0.
    977,   19.7633343,   22.5866661,           0.
    978,   19.4104176,   22.9395828,           0.
    979,   19.0575008,   23.2924995,           0.
    980,   18.7045841,   23.6454163,           0.
    981,   18.3516674,    23.998333,           0.
    982,   17.9987507,   24.3512497,           0.
    983,    17.645834,   24.7041664,           0.
    984,   17.2929173,   25.0570831,           0.
    985,   16.9400005,   25.4099998,           0.
    986,   16.5870838,   25.7629166,           0.
    987,   16.2341671,   26.1158333,           0.
    988,   15.8812504,     26.46875,           0.
    989,   15.5283337,   26.8216667,           0.
    990,   15.1754169,   27.1745834,           0.
    991,   14.8225002,   27.5275002,           0.
    992,   14.4695835,   27.8804169,           0.
    993,   14.1166668,   28.2333336,           0.
    994,   13.7637501,   28.5862503,           0.
    995,   13.4108334,    28.939167,           0.
    996,   13.0579166,   29.2920837,           0.
    997,   12.7049999,   29.6450005,           0.
    998,   12.3520832,   29.9979172,           0.
    999,   11.9991665,   30.3508339,           0.
   1000,   11.6462498,   30.7037506,           0.
   1001,   11.2933331,   31.0566673,           0.
   1002,   10.9404163,    31.409584,           0.
   1003,   10.5874996,   31.7625008,           0.
   1004,   10.2345829,   32.1154175,           0.
   1005,   9.88166714,   32.4683342,           0.
   1006,   9.52875042,   32.8212509,           0.
   1007,    9.1758337,   33.1741676,           0.
   1008,   8.82291698,   33.5270844,           0.
   1009,   20.4691658,   21.1749992,           0.
   1010,   20.1162491,    21.527916,           0.
   1011,   19.7633343,   21.8808327,           0.
   1012,   19.4104176,   22.2337494,           0.
   1013,   19.0575008,   22.5866661,           0.
   1014,   18.7045841,   22.9395828,           0.
   1015,   18.3516674,   23.2924995,           0.
   1016,   17.9987507,   23.6454163,           0.
   1017,    17.645834,    23.998333,           0.
   1018,   17.2929173,   24.3512497,           0.
   1019,   16.9400005,   24.7041664,           0.
   1020,   16.5870838,   25.0570831,           0.
   1021,   16.2341671,   25.4099998,           0.
   1022,   15.8812504,   25.7629166,           0.
   1023,   15.5283337,   26.1158333,           0.
   1024,   15.1754169,     26.46875,           0.
   1025,   14.8225002,   26.8216667,           0.
   1026,   14.4695835,   27.1745834,           0.
   1027,   14.1166668,   27.5275002,           0.
   1028,   13.7637501,   27.8804169,           0.
   1029,   13.4108334,   28.2333336,           0.
   1030,   13.0579166,   28.5862503,           0.
   1031,   12.7049999,    28.939167,           0.
   1032,   12.3520832,   29.2920837,           0.
   1033,   11.9991665,   29.6450005,           0.
   1034,   11.6462498,   29.9979172,           0.
   1035,   11.2933331,   30.3508339,           0.
   1036,   10.9404163,   30.7037506,           0.
   1037,   10.5874996,   31.0566673,           0.
   1038,   10.2345829,    31.409584,           0.
   1039,   9.88166714,   31.7625008,           0.
   1040,   9.52875042,   32.1154175,           0.
   1041,    9.1758337,   32.4683342,           0.
   1042,   8.82291698,   32.8212509,           0.
   1043,   8.47000027,   33.1741676,           0.
   1044,   20.1162491,   20.8220825,           0.
   1045,   19.7633343,   21.1749992,           0.
   1046,   19.4104176,    21.527916,           0.
   1047,   19.0575008,   21.8808327,           0.
   1048,   18.7045841,   22.2337494,           0.
   1049,   18.3516674,   22.5866661,           0.
   1050,   17.9987507,   22.9395828,           0.
   1051,    17.645834,   23.2924995,           0.
   1052,   17.2929173,   23.6454163,           0.
   1053,   16.9400005,    23.998333,           0.
   1054,   16.5870838,   24.3512497,           0.
   1055,   16.2341671,   24.7041664,           0.
   1056,   15.8812504,   25.0570831,           0.
   1057,   15.5283337,   25.4099998,           0.
   1058,   15.1754169,   25.7629166,           0.
   1059,   14.8225002,   26.1158333,           0.
   1060,   14.4695835,     26.46875,           0.
   1061,   14.1166668,   26.8216667,           0.
   1062,   13.7637501,   27.1745834,           0.
   1063,   13.4108334,   27.5275002,           0.
   1064,   13.0579166,   27.8804169,           0.
   1065,   12.7049999,   28.2333336,           0.
   1066,   12.3520832,   28.5862503,           0.
   1067,   11.9991665,    28.939167,           0.
   1068,   11.6462498,   29.2920837,           0.
   1069,   11.2933331,   29.6450005,           0.
   1070,   10.9404163,   29.9979172,           0.
   1071,   10.5874996,   30.3508339,           0.
   1072,   10.2345829,   30.7037506,           0.
   1073,   9.88166714,   31.0566673,           0.
   1074,   9.52875042,    31.409584,           0.
   1075,    9.1758337,   31.7625008,           0.
   1076,   8.82291698,   32.1154175,           0.
   1077,   8.47000027,   32.4683342,           0.
   1078,   8.11708355,   32.8212509,           0.
   1079,   19.7633343,   20.4691658,           0.
   1080,   19.4104176,   20.8220825,           0.
   1081,   19.0575008,   21.1749992,           0.
   1082,   18.7045841,    21.527916,           0.
   1083,   18.3516674,   21.8808327,           0.
   1084,   17.9987507,   22.2337494,           0.
   1085,    17.645834,   22.5866661,           0.
   1086,   17.2929173,   22.9395828,           0.
   1087,   16.9400005,   23.2924995,           0.
   1088,   16.5870838,   23.6454163,           0.
   1089,   16.2341671,    23.998333,           0.
   1090,   15.8812504,   24.3512497,           0.
   1091,   15.5283337,   24.7041664,           0.
   1092,   15.1754169,   25.0570831,           0.
   1093,   14.8225002,   25.4099998,           0.
   1094,   14.4695835,   25.7629166,           0.
   1095,   14.1166668,   26.1158333,           0.
   1096,   13.7637501,     26.46875,           0.
   1097,   13.4108334,   26.8216667,           0.
   1098,   13.0579166,   27.1745834,           0.
   1099,   12.7049999,   27.5275002,           0.
   1100,   12.3520832,   27.8804169,           0.
   1101,   11.9991665,   28.2333336,           0.
   1102,   11.6462498,   28.5862503,           0.
   1103,   11.2933331,    28.939167,           0.
   1104,   10.9404163,   29.2920837,           0.
   1105,   10.5874996,   29.6450005,           0.
   1106,   10.2345829,   29.9979172,           0.
   1107,   9.88166714,   30.3508339,           0.
   1108,   9.52875042,   30.7037506,           0.
   1109,    9.1758337,   31.0566673,           0.
   1110,   8.82291698,    31.409584,           0.
   1111,   8.47000027,   31.7625008,           0.
   1112,   8.11708355,   32.1154175,           0.
   1113,   7.76416683,   32.4683342,           0.
   1114,   19.4104176,   20.1162491,           0.
   1115,   19.0575008,   20.4691658,           0.
   1116,   18.7045841,   20.8220825,           0.
   1117,   18.3516674,   21.1749992,           0.
   1118,   17.9987507,    21.527916,           0.
   1119,    17.645834,   21.8808327,           0.
   1120,   17.2929173,   22.2337494,           0.
   1121,   16.9400005,   22.5866661,           0.
   1122,   16.5870838,   22.9395828,           0.
   1123,   16.2341671,   23.2924995,           0.
   1124,   15.8812504,   23.6454163,           0.
   1125,   15.5283337,    23.998333,           0.
   1126,   15.1754169,   24.3512497,           0.
   1127,   14.8225002,   24.7041664,           0.
   1128,   14.4695835,   25.0570831,           0.
   1129,   14.1166668,   25.4099998,           0.
   1130,   13.7637501,   25.7629166,           0.
   1131,   13.4108334,   26.1158333,           0.
   1132,   13.0579166,     26.46875,           0.
   1133,   12.7049999,   26.8216667,           0.
   1134,   12.3520832,   27.1745834,           0.
   1135,   11.9991665,   27.5275002,           0.
   1136,   11.6462498,   27.8804169,           0.
   1137,   11.2933331,   28.2333336,           0.
   1138,   10.9404163,   28.5862503,           0.
   1139,   10.5874996,    28.939167,           0.
   1140,   10.2345829,   29.2920837,           0.
   1141,   9.88166714,   29.6450005,           0.
   1142,   9.52875042,   29.9979172,           0.
   1143,    9.1758337,   30.3508339,           0.
   1144,   8.82291698,   30.7037506,           0.
   1145,   8.47000027,   31.0566673,           0.
   1146,   8.11708355,    31.409584,           0.
   1147,   7.76416683,   31.7625008,           0.
   1148,   7.41125011,   32.1154175,           0.
   1149,   19.0575008,   19.7633343,           0.
   1150,   18.7045841,   20.1162491,           0.
   1151,   18.3516674,   20.4691658,           0.
   1152,   17.9987507,   20.8220825,           0.
   1153,    17.645834,   21.1749992,           0.
   1154,   17.2929173,    21.527916,           0.
   1155,   16.9400005,   21.8808327,           0.
   1156,   16.5870838,   22.2337494,           0.
   1157,   16.2341671,   22.5866661,           0.
   1158,   15.8812504,   22.9395828,           0.
   1159,   15.5283337,   23.2924995,           0.
   1160,   15.1754169,   23.6454163,           0.
   1161,   14.8225002,    23.998333,           0.
   1162,   14.4695835,   24.3512497,           0.
   1163,   14.1166668,   24.7041664,           0.
   1164,   13.7637501,   25.0570831,           0.
   1165,   13.4108334,   25.4099998,           0.
   1166,   13.0579166,   25.7629166,           0.
   1167,   12.7049999,   26.1158333,           0.
   1168,   12.3520832,     26.46875,           0.
   1169,   11.9991665,   26.8216667,           0.
   1170,   11.6462498,   27.1745834,           0.
   1171,   11.2933331,   27.5275002,           0.
   1172,   10.9404163,   27.8804169,           0.
   1173,   10.5874996,   28.2333336,           0.
   1174,   10.2345829,   28.5862503,           0.
   1175,   9.88166714,    28.939167,           0.
   1176,   9.52875042,   29.2920837,           0.
   1177,    9.1758337,   29.6450005,           0.
   1178,   8.82291698,   29.9979172,           0.
   1179,   8.47000027,   30.3508339,           0.
   1180,   8.11708355,   30.7037506,           0.
   1181,   7.76416683,   31.0566673,           0.
   1182,   7.41125011,    31.409584,           0.
   1183,    7.0583334,   31.7625008,           0.
   1184,   18.7045841,   19.4104176,           0.
   1185,   18.3516674,   19.7633343,           0.
   1186,   17.9987507,   20.1162491,           0.
   1187,    17.645834,   20.4691658,           0.
   1188,   17.2929173,   20.8220825,           0.
   1189,   16.9400005,   21.1749992,           0.
   1190,   16.5870838,    21.527916,           0.
   1191,   16.2341671,   21.8808327,           0.
   1192,   15.8812504,   22.2337494,           0.
   1193,   15.5283337,   22.5866661,           0.
   1194,   15.1754169,   22.9395828,           0.
   1195,   14.8225002,   23.2924995,           0.
   1196,   14.4695835,   23.6454163,           0.
   1197,   14.1166668,    23.998333,           0.
   1198,   13.7637501,   24.3512497,           0.
   1199,   13.4108334,   24.7041664,           0.
   1200,   13.0579166,   25.0570831,           0.
   1201,   12.7049999,   25.4099998,           0.
   1202,   12.3520832,   25.7629166,           0.
   1203,   11.9991665,   26.1158333,           0.
   1204,   11.6462498,     26.46875,           0.
   1205,   11.2933331,   26.8216667,           0.
   1206,   10.9404163,   27.1745834,           0.
   1207,   10.5874996,   27.5275002,           0.
   1208,   10.2345829,   27.8804169,           0.
   1209,   9.88166714,   28.2333336,           0.
   1210,   9.52875042,   28.5862503,           0.
   1211,    9.1758337,    28.939167,           0.
   1212,   8.82291698,   29.2920837,           0.
   1213,   8.47000027,   29.6450005,           0.
   1214,   8.11708355,   29.9979172,           0.
   1215,   7.76416683,   30.3508339,           0.
   1216,   7.41125011,   30.7037506,           0.
   1217,    7.0583334,   31.0566673,           0.
   1218,   6.70541668,    31.409584,           0.
   1219,   18.3516674,   19.0575008,           0.
   1220,   17.9987507,   19.4104176,           0.
   1221,    17.645834,   19.7633343,           0.
   1222,   17.2929173,   20.1162491,           0.
   1223,   16.9400005,   20.4691658,           0.
   1224,   16.5870838,   20.8220825,           0.
   1225,   16.2341671,   21.1749992,           0.
   1226,   15.8812504,    21.527916,           0.
   1227,   15.5283337,   21.8808327,           0.
   1228,   15.1754169,   22.2337494,           0.
   1229,   14.8225002,   22.5866661,           0.
   1230,   14.4695835,   22.9395828,           0.
   1231,   14.1166668,   23.2924995,           0.
   1232,   13.7637501,   23.6454163,           0.
   1233,   13.4108334,    23.998333,           0.
   1234,   13.0579166,   24.3512497,           0.
   1235,   12.7049999,   24.7041664,           0.
   1236,   12.3520832,   25.0570831,           0.
   1237,   11.9991665,   25.4099998,           0.
   1238,   11.6462498,   25.7629166,           0.
   1239,   11.2933331,   26.1158333,           0.
   1240,   10.9404163,     26.46875,           0.
   1241,   10.5874996,   26.8216667,           0.
   1242,   10.2345829,   27.1745834,           0.
   1243,   9.88166714,   27.5275002,           0.
   1244,   9.52875042,   27.8804169,           0.
   1245,    9.1758337,   28.2333336,           0.
   1246,   8.82291698,   28.5862503,           0.
   1247,   8.47000027,    28.939167,           0.
   1248,   8.11708355,   29.2920837,           0.
   1249,   7.76416683,   29.6450005,           0.
   1250,   7.41125011,   29.9979172,           0.
   1251,    7.0583334,   30.3508339,           0.
   1252,   6.70541668,   30.7037506,           0.
   1253,   6.35249996,   31.0566673,           0.
   1254,   17.9987507,   18.7045841,           0.
   1255,    17.645834,   19.0575008,           0.
   1256,   17.2929173,   19.4104176,           0.
   1257,   16.9400005,   19.7633343,           0.
   1258,   16.5870838,   20.1162491,           0.
   1259,   16.2341671,   20.4691658,           0.
   1260,   15.8812504,   20.8220825,           0.
   1261,   15.5283337,   21.1749992,           0.
   1262,   15.1754169,    21.527916,           0.
   1263,   14.8225002,   21.8808327,           0.
   1264,   14.4695835,   22.2337494,           0.
   1265,   14.1166668,   22.5866661,           0.
   1266,   13.7637501,   22.9395828,           0.
   1267,   13.4108334,   23.2924995,           0.
   1268,   13.0579166,   23.6454163,           0.
   1269,   12.7049999,    23.998333,           0.
   1270,   12.3520832,   24.3512497,           0.
   1271,   11.9991665,   24.7041664,           0.
   1272,   11.6462498,   25.0570831,           0.
   1273,   11.2933331,   25.4099998,           0.
   1274,   10.9404163,   25.7629166,           0.
   1275,   10.5874996,   26.1158333,           0.
   1276,   10.2345829,     26.46875,           0.
   1277,   9.88166714,   26.8216667,           0.
   1278,   9.52875042,   27.1745834,           0.
   1279,    9.1758337,   27.5275002,           0.
   1280,   8.82291698,   27.8804169,           0.
   1281,   8.47000027,   28.2333336,           0.
   1282,   8.11708355,   28.5862503,           0.
   1283,   7.76416683,    28.939167,           0.
   1284,   7.41125011,   29.2920837,           0.
   1285,    7.0583334,   29.6450005,           0.
   1286,   6.70541668,   29.9979172,           0.
   1287,   6.35249996,   30.3508339,           0.
   1288,   5.99958324,   30.7037506,           0.
   1289,    17.645834,   18.3516674,           0.
   1290,   17.2929173,   18.7045841,           0.
   1291,   16.9400005,   19.0575008,           0.
   1292,   16.5870838,   19.4104176,           0.
   1293,   16.2341671,   19.7633343,           0.
   1294,   15.8812504,   20.1162491,           0.
   1295,   15.5283337,   20.4691658,           0.
   1296,   15.1754169,   20.8220825,           0.
   1297,   14.8225002,   21.1749992,           0.
   1298,   14.4695835,    21.527916,           0.
   1299,   14.1166668,   21.8808327,           0.
   1300,   13.7637501,   22.2337494,           0.
   1301,   13.4108334,   22.5866661,           0.
   1302,   13.0579166,   22.9395828,           0.
   1303,   12.7049999,   23.2924995,           0.
   1304,   12.3520832,   23.6454163,           0.
   1305,   11.9991665,    23.998333,           0.
   1306,   11.6462498,   24.3512497,           0.
   1307,   11.2933331,   24.7041664,           0.
   1308,   10.9404163,   25.0570831,           0.
   1309,   10.5874996,   25.4099998,           0.
   1310,   10.2345829,   25.7629166,           0.
   1311,   9.88166714,   26.1158333,           0.
   1312,   9.52875042,     26.46875,           0.
   1313,    9.1758337,   26.8216667,           0.
   1314,   8.82291698,   27.1745834,           0.
   1315,   8.47000027,   27.5275002,           0.
   1316,   8.11708355,   27.8804169,           0.
   1317,   7.76416683,   28.2333336,           0.
   1318,   7.41125011,   28.5862503,           0.
   1319,    7.0583334,    28.939167,           0.
   1320,   6.70541668,   29.2920837,           0.
   1321,   6.35249996,   29.6450005,           0.
   1322,   5.99958324,   29.9979172,           0.
   1323,   5.64666653,   30.3508339,           0.
   1324,   17.2929173,   17.9987507,           0.
   1325,   16.9400005,   18.3516674,           0.
   1326,   16.5870838,   18.7045841,           0.
   1327,   16.2341671,   19.0575008,           0.
   1328,   15.8812504,   19.4104176,           0.
   1329,   15.5283337,   19.7633343,           0.
   1330,   15.1754169,   20.1162491,           0.
   1331,   14.8225002,   20.4691658,           0.
   1332,   14.4695835,   20.8220825,           0.
   1333,   14.1166668,   21.1749992,           0.
   1334,   13.7637501,    21.527916,           0.
   1335,   13.4108334,   21.8808327,           0.
   1336,   13.0579166,   22.2337494,           0.
   1337,   12.7049999,   22.5866661,           0.
   1338,   12.3520832,   22.9395828,           0.
   1339,   11.9991665,   23.2924995,           0.
   1340,   11.6462498,   23.6454163,           0.
   1341,   11.2933331,    23.998333,           0.
   1342,   10.9404163,   24.3512497,           0.
   1343,   10.5874996,   24.7041664,           0.
   1344,   10.2345829,   25.0570831,           0.
   1345,   9.88166714,   25.4099998,           0.
   1346,   9.52875042,   25.7629166,           0.
   1347,    9.1758337,   26.1158333,           0.
   1348,   8.82291698,     26.46875,           0.
   1349,   8.47000027,   26.8216667,           0.
   1350,   8.11708355,   27.1745834,           0.
   1351,   7.76416683,   27.5275002,           0.
   1352,   7.41125011,   27.8804169,           0.
   1353,    7.0583334,   28.2333336,           0.
   1354,   6.70541668,   28.5862503,           0.
   1355,   6.35249996,    28.939167,           0.
   1356,   5.99958324,   29.2920837,           0.
   1357,   5.64666653,   29.6450005,           0.
   1358,   5.29374981,   29.9979172,           0.
   1359,   16.9400005,    17.645834,           0.
   1360,   16.5870838,   17.9987507,           0.
   1361,   16.2341671,   18.3516674,           0.
   1362,   15.8812504,   18.7045841,           0.
   1363,   15.5283337,   19.0575008,           0.
   1364,   15.1754169,   19.4104176,           0.
   1365,   14.8225002,   19.7633343,           0.
   1366,   14.4695835,   20.1162491,           0.
   1367,   14.1166668,   20.4691658,           0.
   1368,   13.7637501,   20.8220825,           0.
   1369,   13.4108334,   21.1749992,           0.
   1370,   13.0579166,    21.527916,           0.
   1371,   12.7049999,   21.8808327,           0.
   1372,   12.3520832,   22.2337494,           0.
   1373,   11.9991665,   22.5866661,           0.
   1374,   11.6462498,   22.9395828,           0.
   1375,   11.2933331,   23.2924995,           0.
   1376,   10.9404163,   23.6454163,           0.
   1377,   10.5874996,    23.998333,           0.
   1378,   10.2345829,   24.3512497,           0.
   1379,   9.88166714,   24.7041664,           0.
   1380,   9.52875042,   25.0570831,           0.
   1381,    9.1758337,   25.4099998,           0.
   1382,   8.82291698,   25.7629166,           0.
   1383,   8.47000027,   26.1158333,           0.
   1384,   8.11708355,     26.46875,           0.
   1385,   7.76416683,   26.8216667,           0.
   1386,   7.41125011,   27.1745834,           0.
   1387,    7.0583334,   27.5275002,           0.
   1388,   6.70541668,   27.8804169,           0.
   1389,   6.35249996,   28.2333336,           0.
   1390,   5.99958324,   28.5862503,           0.
   1391,   5.64666653,    28.939167,           0.
   1392,   5.29374981,   29.2920837,           0.
   1393,   4.94083357,   29.6450005,           0.
   1394,   16.5870838,   17.2929173,           0.
   1395,   16.2341671,    17.645834,           0.
   1396,   15.8812504,   17.9987507,           0.
   1397,   15.5283337,   18.3516674,           0.
   1398,   15.1754169,   18.7045841,           0.
   1399,   14.8225002,   19.0575008,           0.
   1400,   14.4695835,   19.4104176,           0.
   1401,   14.1166668,   19.7633343,           0.
   1402,   13.7637501,   20.1162491,           0.
   1403,   13.4108334,   20.4691658,           0.
   1404,   13.0579166,   20.8220825,           0.
   1405,   12.7049999,   21.1749992,           0.
   1406,   12.3520832,    21.527916,           0.
   1407,   11.9991665,   21.8808327,           0.
   1408,   11.6462498,   22.2337494,           0.
   1409,   11.2933331,   22.5866661,           0.
   1410,   10.9404163,   22.9395828,           0.
   1411,   10.5874996,   23.2924995,           0.
   1412,   10.2345829,   23.6454163,           0.
   1413,   9.88166714,    23.998333,           0.
   1414,   9.52875042,   24.3512497,           0.
   1415,    9.1758337,   24.7041664,           0.
   1416,   8.82291698,   25.0570831,           0.
   1417,   8.47000027,   25.4099998,           0.
   1418,   8.11708355,   25.7629166,           0.
   1419,   7.76416683,   26.1158333,           0.
   1420,   7.41125011,     26.46875,           0.
   1421,    7.0583334,   26.8216667,           0.
   1422,   6.70541668,   27.1745834,           0.
   1423,   6.35249996,   27.5275002,           0.
   1424,   5.99958324,   27.8804169,           0.
   1425,   5.64666653,   28.2333336,           0.
   1426,   5.29374981,   28.5862503,           0.
   1427,   4.94083357,    28.939167,           0.
   1428,   4.58791685,   29.2920837,           0.
   1429,   16.2341671,   16.9400005,           0.
   1430,   15.8812504,   17.2929173,           0.
   1431,   15.5283337,    17.645834,           0.
   1432,   15.1754169,   17.9987507,           0.
   1433,   14.8225002,   18.3516674,           0.
   1434,   14.4695835,   18.7045841,           0.
   1435,   14.1166668,   19.0575008,           0.
   1436,   13.7637501,   19.4104176,           0.
   1437,   13.4108334,   19.7633343,           0.
   1438,   13.0579166,   20.1162491,           0.
   1439,   12.7049999,   20.4691658,           0.
   1440,   12.3520832,   20.8220825,           0.
   1441,   11.9991665,   21.1749992,           0.
   1442,   11.6462498,    21.527916,           0.
   1443,   11.2933331,   21.8808327,           0.
   1444,   10.9404163,   22.2337494,           0.
   1445,   10.5874996,   22.5866661,           0.
   1446,   10.2345829,   22.9395828,           0.
   1447,   9.88166714,   23.2924995,           0.
   1448,   9.52875042,   23.6454163,           0.
   1449,    9.1758337,    23.998333,           0.
   1450,   8.82291698,   24.3512497,           0.
   1451,   8.47000027,   24.7041664,           0.
   1452,   8.11708355,   25.0570831,           0.
   1453,   7.76416683,   25.4099998,           0.
   1454,   7.41125011,   25.7629166,           0.
   1455,    7.0583334,   26.1158333,           0.
   1456,   6.70541668,     26.46875,           0.
   1457,   6.35249996,   26.8216667,           0.
   1458,   5.99958324,   27.1745834,           0.
   1459,   5.64666653,   27.5275002,           0.
   1460,   5.29374981,   27.8804169,           0.
   1461,   4.94083357,   28.2333336,           0.
   1462,   4.58791685,   28.5862503,           0.
   1463,   4.23500013,    28.939167,           0.
   1464,   15.8812504,   16.5870838,           0.
   1465,   15.5283337,   16.9400005,           0.
   1466,   15.1754169,   17.2929173,           0.
   1467,   14.8225002,    17.645834,           0.
   1468,   14.4695835,   17.9987507,           0.
   1469,   14.1166668,   18.3516674,           0.
   1470,   13.7637501,   18.7045841,           0.
   1471,   13.4108334,   19.0575008,           0.
   1472,   13.0579166,   19.4104176,           0.
   1473,   12.7049999,   19.7633343,           0.
   1474,   12.3520832,   20.1162491,           0.
   1475,   11.9991665,   20.4691658,           0.
   1476,   11.6462498,   20.8220825,           0.
   1477,   11.2933331,   21.1749992,           0.
   1478,   10.9404163,    21.527916,           0.
   1479,   10.5874996,   21.8808327,           0.
   1480,   10.2345829,   22.2337494,           0.
   1481,   9.88166714,   22.5866661,           0.
   1482,   9.52875042,   22.9395828,           0.
   1483,    9.1758337,   23.2924995,           0.
   1484,   8.82291698,   23.6454163,           0.
   1485,   8.47000027,    23.998333,           0.
   1486,   8.11708355,   24.3512497,           0.
   1487,   7.76416683,   24.7041664,           0.
   1488,   7.41125011,   25.0570831,           0.
   1489,    7.0583334,   25.4099998,           0.
   1490,   6.70541668,   25.7629166,           0.
   1491,   6.35249996,   26.1158333,           0.
   1492,   5.99958324,     26.46875,           0.
   1493,   5.64666653,   26.8216667,           0.
   1494,   5.29374981,   27.1745834,           0.
   1495,   4.94083357,   27.5275002,           0.
   1496,   4.58791685,   27.8804169,           0.
   1497,   4.23500013,   28.2333336,           0.
   1498,   3.88208342,   28.5862503,           0.
   1499,   15.5283337,   16.2341671,           0.
   1500,   15.1754169,   16.5870838,           0.
   1501,   14.8225002,   16.9400005,           0.
   1502,   14.4695835,   17.2929173,           0.
   1503,   14.1166668,    17.645834,           0.
   1504,   13.7637501,   17.9987507,           0.
   1505,   13.4108334,   18.3516674,           0.
   1506,   13.0579166,   18.7045841,           0.
   1507,   12.7049999,   19.0575008,           0.
   1508,   12.3520832,   19.4104176,           0.
   1509,   11.9991665,   19.7633343,           0.
   1510,   11.6462498,   20.1162491,           0.
   1511,   11.2933331,   20.4691658,           0.
   1512,   10.9404163,   20.8220825,           0.
   1513,   10.5874996,   21.1749992,           0.
   1514,   10.2345829,    21.527916,           0.
   1515,   9.88166714,   21.8808327,           0.
   1516,   9.52875042,   22.2337494,           0.
   1517,    9.1758337,   22.5866661,           0.
   1518,   8.82291698,   22.9395828,           0.
   1519,   8.47000027,   23.2924995,           0.
   1520,   8.11708355,   23.6454163,           0.
   1521,   7.76416683,    23.998333,           0.
   1522,   7.41125011,   24.3512497,           0.
   1523,    7.0583334,   24.7041664,           0.
   1524,   6.70541668,   25.0570831,           0.
   1525,   6.35249996,   25.4099998,           0.
   1526,   5.99958324,   25.7629166,           0.
   1527,   5.64666653,   26.1158333,           0.
   1528,   5.29374981,     26.46875,           0.
   1529,   4.94083357,   26.8216667,           0.
   1530,   4.58791685,   27.1745834,           0.
   1531,   4.23500013,   27.5275002,           0.
   1532,   3.88208342,   27.8804169,           0.
   1533,    3.5291667,   28.2333336,           0.
   1534,   15.1754169,   15.8812504,           0.
   1535,   14.8225002,   16.2341671,           0.
   1536,   14.4695835,   16.5870838,           0.
   1537,   14.1166668,   16.9400005,           0.
   1538,   13.7637501,   17.2929173,           0.
   1539,   13.4108334,    17.645834,           0.
   1540,   13.0579166,   17.9987507,           0.
   1541,   12.7049999,   18.3516674,           0.
   1542,   12.3520832,   18.7045841,           0.
   1543,   11.9991665,   19.0575008,           0.
   1544,   11.6462498,   19.4104176,           0.
   1545,   11.2933331,   19.7633343,           0.
   1546,   10.9404163,   20.1162491,           0.
   1547,   10.5874996,   20.4691658,           0.
   1548,   10.2345829,   20.8220825,           0.
   1549,   9.88166714,   21.1749992,           0.
   1550,   9.52875042,    21.527916,           0.
   1551,    9.1758337,   21.8808327,           0.
   1552,   8.82291698,   22.2337494,           0.
   1553,   8.47000027,   22.5866661,           0.
   1554,   8.11708355,   22.9395828,           0.
   1555,   7.76416683,   23.2924995,           0.
   1556,   7.41125011,   23.6454163,           0.
   1557,    7.0583334,    23.998333,           0.
   1558,   6.70541668,   24.3512497,           0.
   1559,   6.35249996,   24.7041664,           0.
   1560,   5.99958324,   25.0570831,           0.
   1561,   5.64666653,   25.4099998,           0.
   1562,   5.29374981,   25.7629166,           0.
   1563,   4.94083357,   26.1158333,           0.
   1564,   4.58791685,     26.46875,           0.
   1565,   4.23500013,   26.8216667,           0.
   1566,   3.88208342,   27.1745834,           0.
   1567,    3.5291667,   27.5275002,           0.
   1568,   3.17624998,   27.8804169,           0.
   1569,   14.8225002,   15.5283337,           0.
   1570,   14.4695835,   15.8812504,           0.
   1571,   14.1166668,   16.2341671,           0.
   1572,   13.7637501,   16.5870838,           0.
   1573,   13.4108334,   16.9400005,           0.
   1574,   13.0579166,   17.2929173,           0.
   1575,   12.7049999,    17.645834,           0.
   1576,   12.3520832,   17.9987507,           0.
   1577,   11.9991665,   18.3516674,           0.
   1578,   11.6462498,   18.7045841,           0.
   1579,   11.2933331,   19.0575008,           0.
   1580,   10.9404163,   19.4104176,           0.
   1581,   10.5874996,   19.7633343,           0.
   1582,   10.2345829,   20.1162491,           0.
   1583,   9.88166714,   20.4691658,           0.
   1584,   9.52875042,   20.8220825,           0.
   1585,    9.1758337,   21.1749992,           0.
   1586,   8.82291698,    21.527916,           0.
   1587,   8.47000027,   21.8808327,           0.
   1588,   8.11708355,   22.2337494,           0.
   1589,   7.76416683,   22.5866661,           0.
   1590,   7.41125011,   22.9395828,           0.
   1591,    7.0583334,   23.2924995,           0.
   1592,   6.70541668,   23.6454163,           0.
   1593,   6.35249996,    23.998333,           0.
   1594,   5.99958324,   24.3512497,           0.
   1595,   5.64666653,   24.7041664,           0.
   1596,   5.29374981,   25.0570831,           0.
   1597,   4.94083357,   25.4099998,           0.
   1598,   4.58791685,   25.7629166,           0.
   1599,   4.23500013,   26.1158333,           0.
   1600,   3.88208342,     26.46875,           0.
   1601,    3.5291667,   26.8216667,           0.
   1602,   3.17624998,   27.1745834,           0.
   1603,   2.82333326,   27.5275002,           0.
   1604,   14.4695835,   15.1754169,           0.
   1605,   14.1166668,   15.5283337,           0.
   1606,   13.7637501,   15.8812504,           0.
   1607,   13.4108334,   16.2341671,           0.
   1608,   13.0579166,   16.5870838,           0.
   1609,   12.7049999,   16.9400005,           0.
   1610,   12.3520832,   17.2929173,           0.
   1611,   11.9991665,    17.645834,           0.
   1612,   11.6462498,   17.9987507,           0.
   1613,   11.2933331,   18.3516674,           0.
   1614,   10.9404163,   18.7045841,           0.
   1615,   10.5874996,   19.0575008,           0.
   1616,   10.2345829,   19.4104176,           0.
   1617,   9.88166714,   19.7633343,           0.
   1618,   9.52875042,   20.1162491,           0.
   1619,    9.1758337,   20.4691658,           0.
   1620,   8.82291698,   20.8220825,           0.
   1621,   8.47000027,   21.1749992,           0.
   1622,   8.11708355,    21.527916,           0.
   1623,   7.76416683,   21.8808327,           0.
   1624,   7.41125011,   22.2337494,           0.
   1625,    7.0583334,   22.5866661,           0.
   1626,   6.70541668,   22.9395828,           0.
   1627,   6.35249996,   23.2924995,           0.
   1628,   5.99958324,   23.6454163,           0.
   1629,   5.64666653,    23.998333,           0.
   1630,   5.29374981,   24.3512497,           0.
   1631,   4.94083357,   24.7041664,           0.
   1632,   4.58791685,   25.0570831,           0.
   1633,   4.23500013,   25.4099998,           0.
   1634,   3.88208342,   25.7629166,           0.
   1635,    3.5291667,   26.1158333,           0.
   1636,   3.17624998,     26.46875,           0.
   1637,   2.82333326,   26.8216667,           0.
   1638,   2.47041678,   27.1745834,           0.
   1639,   14.1166668,   14.8225002,           0.
   1640,   13.7637501,   15.1754169,           0.
   1641,   13.4108334,   15.5283337,           0.
   1642,   13.0579166,   15.8812504,           0.
   1643,   12.7049999,   16.2341671,           0.
   1644,   12.3520832,   16.5870838,           0.
   1645,   11.9991665,   16.9400005,           0.
   1646,   11.6462498,   17.2929173,           0.
   1647,   11.2933331,    17.645834,           0.
   1648,   10.9404163,   17.9987507,           0.
   1649,   10.5874996,   18.3516674,           0.
   1650,   10.2345829,   18.7045841,           0.
   1651,   9.88166714,   19.0575008,           0.
   1652,   9.52875042,   19.4104176,           0.
   1653,    9.1758337,   19.7633343,           0.
   1654,   8.82291698,   20.1162491,           0.
   1655,   8.47000027,   20.4691658,           0.
   1656,   8.11708355,   20.8220825,           0.
   1657,   7.76416683,   21.1749992,           0.
   1658,   7.41125011,    21.527916,           0.
   1659,    7.0583334,   21.8808327,           0.
   1660,   6.70541668,   22.2337494,           0.
   1661,   6.35249996,   22.5866661,           0.
   1662,   5.99958324,   22.9395828,           0.
   1663,   5.64666653,   23.2924995,           0.
   1664,   5.29374981,   23.6454163,           0.
   1665,   4.94083357,    23.998333,           0.
   1666,   4.58791685,   24.3512497,           0.
   1667,   4.23500013,   24.7041664,           0.
   1668,   3.88208342,   25.0570831,           0.
   1669,    3.5291667,   25.4099998,           0.
   1670,   3.17624998,   25.7629166,           0.
   1671,   2.82333326,   26.1158333,           0.
   1672,   2.47041678,     26.46875,           0.
   1673,   2.11750007,   26.8216667,           0.
   1674,   13.7637501,   14.4695835,           0.
   1675,   13.4108334,   14.8225002,           0.
   1676,   13.0579166,   15.1754169,           0.
   1677,   12.7049999,   15.5283337,           0.
   1678,   12.3520832,   15.8812504,           0.
   1679,   11.9991665,   16.2341671,           0.
   1680,   11.6462498,   16.5870838,           0.
   1681,   11.2933331,   16.9400005,           0.
   1682,   10.9404163,   17.2929173,           0.
   1683,   10.5874996,    17.645834,           0.
   1684,   10.2345829,   17.9987507,           0.
   1685,   9.88166714,   18.3516674,           0.
   1686,   9.52875042,   18.7045841,           0.
   1687,    9.1758337,   19.0575008,           0.
   1688,   8.82291698,   19.4104176,           0.
   1689,   8.47000027,   19.7633343,           0.
   1690,   8.11708355,   20.1162491,           0.
   1691,   7.76416683,   20.4691658,           0.
   1692,   7.41125011,   20.8220825,           0.
   1693,    7.0583334,   21.1749992,           0.
   1694,   6.70541668,    21.527916,           0.
   1695,   6.35249996,   21.8808327,           0.
   1696,   5.99958324,   22.2337494,           0.
   1697,   5.64666653,   22.5866661,           0.
   1698,   5.29374981,   22.9395828,           0.
   1699,   4.94083357,   23.2924995,           0.
   1700,   4.58791685,   23.6454163,           0.
   1701,   4.23500013,    23.998333,           0.
   1702,   3.88208342,   24.3512497,           0.
   1703,    3.5291667,   24.7041664,           0.
   1704,   3.17624998,   25.0570831,           0.
   1705,   2.82333326,   25.4099998,           0.
   1706,   2.47041678,   25.7629166,           0.
   1707,   2.11750007,   26.1158333,           0.
   1708,   1.76458335,     26.46875,           0.
   1709,   13.4108334,   14.1166668,           0.
   1710,   13.0579166,   14.4695835,           0.
   1711,   12.7049999,   14.8225002,           0.
   1712,   12.3520832,   15.1754169,           0.
   1713,   11.9991665,   15.5283337,           0.
   1714,   11.6462498,   15.8812504,           0.
   1715,   11.2933331,   16.2341671,           0.
   1716,   10.9404163,   16.5870838,           0.
   1717,   10.5874996,   16.9400005,           0.
   1718,   10.2345829,   17.2929173,           0.
   1719,   9.88166714,    17.645834,           0.
   1720,   9.52875042,   17.9987507,           0.
   1721,    9.1758337,   18.3516674,           0.
   1722,   8.82291698,   18.7045841,           0.
   1723,   8.47000027,   19.0575008,           0.
   1724,   8.11708355,   19.4104176,           0.
   1725,   7.76416683,   19.7633343,           0.
   1726,   7.41125011,   20.1162491,           0.
   1727,    7.0583334,   20.4691658,           0.
   1728,   6.70541668,   20.8220825,           0.
   1729,   6.35249996,   21.1749992,           0.
   1730,   5.99958324,    21.527916,           0.
   1731,   5.64666653,   21.8808327,           0.
   1732,   5.29374981,   22.2337494,           0.
   1733,   4.94083357,   22.5866661,           0.
   1734,   4.58791685,   22.9395828,           0.
   1735,   4.23500013,   23.2924995,           0.
   1736,   3.88208342,   23.6454163,           0.
   1737,    3.5291667,    23.998333,           0.
   1738,   3.17624998,   24.3512497,           0.
   1739,   2.82333326,   24.7041664,           0.
   1740,   2.47041678,   25.0570831,           0.
   1741,   2.11750007,   25.4099998,           0.
   1742,   1.76458335,   25.7629166,           0.
   1743,   1.41166663,   26.1158333,           0.
   1744,   13.0579166,   13.7637501,           0.
   1745,   12.7049999,   14.1166668,           0.
   1746,   12.3520832,   14.4695835,           0.
   1747,   11.9991665,   14.8225002,           0.
   1748,   11.6462498,   15.1754169,           0.
   1749,   11.2933331,   15.5283337,           0.
   1750,   10.9404163,   15.8812504,           0.
   1751,   10.5874996,   16.2341671,           0.
   1752,   10.2345829,   16.5870838,           0.
   1753,   9.88166714,   16.9400005,           0.
   1754,   9.52875042,   17.2929173,           0.
   1755,    9.1758337,    17.645834,           0.
   1756,   8.82291698,   17.9987507,           0.
   1757,   8.47000027,   18.3516674,           0.
   1758,   8.11708355,   18.7045841,           0.
   1759,   7.76416683,   19.0575008,           0.
   1760,   7.41125011,   19.4104176,           0.
   1761,    7.0583334,   19.7633343,           0.
   1762,   6.70541668,   20.1162491,           0.
   1763,   6.35249996,   20.4691658,           0.
   1764,   5.99958324,   20.8220825,           0.
   1765,   5.64666653,   21.1749992,           0.
   1766,   5.29374981,    21.527916,           0.
   1767,   4.94083357,   21.8808327,           0.
   1768,   4.58791685,   22.2337494,           0.
   1769,   4.23500013,   22.5866661,           0.
   1770,   3.88208342,   22.9395828,           0.
   1771,    3.5291667,   23.2924995,           0.
   1772,   3.17624998,   23.6454163,           0.
   1773,   2.82333326,    23.998333,           0.
   1774,   2.47041678,   24.3512497,           0.
   1775,   2.11750007,   24.7041664,           0.
   1776,   1.76458335,   25.0570831,           0.
   1777,   1.41166663,   25.4099998,           0.
   1778,   1.05875003,   25.7629166,           0.
   1779,   12.7049999,   13.4108334,           0.
   1780,   12.3520832,   13.7637501,           0.
   1781,   11.9991665,   14.1166668,           0.
   1782,   11.6462498,   14.4695835,           0.
   1783,   11.2933331,   14.8225002,           0.
   1784,   10.9404163,   15.1754169,           0.
   1785,   10.5874996,   15.5283337,           0.
   1786,   10.2345829,   15.8812504,           0.
   1787,   9.88166714,   16.2341671,           0.
   1788,   9.52875042,   16.5870838,           0.
   1789,    9.1758337,   16.9400005,           0.
   1790,   8.82291698,   17.2929173,           0.
   1791,   8.47000027,    17.645834,           0.
   1792,   8.11708355,   17.9987507,           0.
   1793,   7.76416683,   18.3516674,           0.
   1794,   7.41125011,   18.7045841,           0.
   1795,    7.0583334,   19.0575008,           0.
   1796,   6.70541668,   19.4104176,           0.
   1797,   6.35249996,   19.7633343,           0.
   1798,   5.99958324,   20.1162491,           0.
   1799,   5.64666653,   20.4691658,           0.
   1800,   5.29374981,   20.8220825,           0.
   1801,   4.94083357,   21.1749992,           0.
   1802,   4.58791685,    21.527916,           0.
   1803,   4.23500013,   21.8808327,           0.
   1804,   3.88208342,   22.2337494,           0.
   1805,    3.5291667,   22.5866661,           0.
   1806,   3.17624998,   22.9395828,           0.
   1807,   2.82333326,   23.2924995,           0.
   1808,   2.47041678,   23.6454163,           0.
   1809,   2.11750007,    23.998333,           0.
   1810,   1.76458335,   24.3512497,           0.
   1811,   1.41166663,   24.7041664,           0.
   1812,   1.05875003,   25.0570831,           0.
   1813,  0.705833316,   25.4099998,           0.
   1814,   23.4194489,  0.742706656,           0.
   1815,   20.2286015,   3.86819625,           0.
   1816,   17.0338497,   7.10972118,           0.
   1817,     13.55793,   10.5910635,           0.
   1818,   22.4723206,  0.884299099,           0.
   1819,   21.1524963,   1.13042593,           0.
   1820,   19.7829151,  0.893813848,           0.
   1821,   18.9273396,  0.848783016,           0.
   1822,   18.0151882,   1.13237274,           0.
   1823,   16.9535313,    1.0560931,           0.
   1824,   15.8645391,   1.25951231,           0.
   1825,   14.8439837,  0.943517208,           0.
   1826,   13.9593716,  0.845794559,           0.
   1827,   12.7681866,   1.21473086,           0.
   1828,   11.4039793,   0.95601964,           0.
   1829,   10.4847193,   1.02173233,           0.
   1830,   9.41927624,   1.16858351,           0.
   1831,   8.38288212,  0.975221038,           0.
   1832,   7.43826914,  0.931689382,           0.
   1833,   6.48351336,  0.921730638,           0.
   1834,   5.51840353,  0.940365851,           0.
   1835,    4.2309761,   1.06237674,           0.
   1836,   2.93443346,  0.750029445,           0.
   1837,   2.01722741,  0.853060186,           0.
   1838,   22.2480679,   1.89779603,           0.
   1839,    21.305872,   2.17715693,           0.
   1840,   20.2372189,   1.86835587,           0.
   1841,   19.1891956,   2.08394694,           0.
   1842,   18.2801113,   1.99237621,           0.
   1843,     16.72505,   2.05429697,           0.
   1844,   15.7480888,    2.1270752,           0.
   1845,   14.7183094,   2.17887712,           0.
   1846,   13.9474058,   2.19673514,           0.
   1847,    12.658433,   1.97970665,           0.
   1848,   10.5929499,   2.18485475,           0.
   1849,   9.63185024,   2.57165694,           0.
   1850,   8.27702808,   1.95989704,           0.
   1851,   7.39046192,    1.8197701,           0.
   1852,   6.47119045,    1.8681978,           0.
   1853,    5.1545577,   1.88658488,           0.
   1854,   4.21680307,   2.23115253,           0.
   1855,   3.34513187,   2.00573397,           0.
   1856,   21.2419434,     2.901752,           0.
   1857,   20.1019192,   3.16419196,           0.
   1858,   18.9470234,   3.01466036,           0.
   1859,   18.0330296,   2.92637134,           0.
   1860,   16.9928303,   2.89972663,           0.
   1861,    15.832181,   3.17805409,           0.
   1862,   14.9812832,   3.04993558,           0.
   1863,   14.1217937,   3.20166779,           0.
   1864,   12.3937206,   3.16048813,           0.
   1865,   11.5665321,   3.50296092,           0.
   1866,   10.1730766,   3.22066236,           0.
   1867,   9.35076904,    3.0491879,           0.
   1868,   8.36391735,   3.31337023,           0.
   1869,    7.2657156,   3.19363356,           0.
   1870,   6.61318064,   3.05350184,           0.
   1871,   5.60337687,   2.98949885,           0.
   1872,   4.62508774,   3.39357138,           0.
   1873,   19.2830715,   3.82477379,           0.
   1874,   17.8728447,   4.17119074,           0.
   1875,   16.7633076,    3.9897356,           0.
   1876,    16.044138,   4.28816032,           0.
   1877,   14.7570553,   4.19225836,           0.
   1878,   13.8011541,   4.37262201,           0.
   1879,   12.5954447,   4.55482721,           0.
   1880,   11.7564878,   4.48543167,           0.
   1881,   10.6507215,   4.11265326,           0.
   1882,   8.65014839,   4.39872265,           0.
   1883,    7.1780405,   4.03003693,           0.
   1884,   6.24861479,   4.33766222,           0.
   1885,   5.60285378,   4.23805046,           0.
   1886,    18.975235,   5.15249681,           0.
   1887,   17.9220066,    5.3064971,           0.
   1888,   16.7640972,   5.02610302,           0.
   1889,   15.8256912,   5.41804314,           0.
   1890,   14.7628078,   5.52168894,           0.
   1891,   13.8678064,    5.0525012,           0.
   1892,   12.7003479,   5.26264477,           0.
   1893,    11.795867,   5.01280546,           0.
   1894,   10.4828033,   5.32490158,           0.
   1895,    9.7037611,   5.11890936,           0.
   1896,   8.45359516,    5.4987402,           0.
   1897,   7.37545681,   5.19790554,           0.
   1898,   6.66191339,   5.27771473,           0.
   1899,   17.0208855,   6.43294859,           0.
   1900,   15.8264208,   6.40732527,           0.
   1901,   14.8926935,   6.46841812,           0.
   1902,   13.7158918,   6.31297445,           0.
   1903,   12.8338137,   6.52660561,           0.
   1904,   11.6407242,   6.19531631,           0.
   1905,    10.546834,   6.45670748,           0.
   1906,   9.79609203,   6.48872089,           0.
   1907,   8.59061337,   6.56576204,           0.
   1908,   7.68285847,   6.32677555,           0.
   1909,   15.6396065,   7.70736885,           0.
   1910,   14.7112436,   7.11831141,           0.
   1911,   13.8629303,   7.31174326,           0.
   1912,   12.9293098,   7.39322472,           0.
   1913,   11.4150763,   7.34724951,           0.
   1914,   10.7893391,    7.1623311,           0.
   1915,   9.71383953,   7.46917725,           0.
   1916,   8.68867302,   7.26950026,           0.
   1917,   15.5589523,   8.42240524,           0.
   1918,   13.8537846,   8.46210003,           0.
   1919,   12.6444616,   8.64675045,           0.
   1920,   11.7366724,   8.21053886,           0.
   1921,   9.81591702,    8.2548151,           0.
   1922,    14.534193,   9.53753948,           0.
   1923,   13.6904373,    9.4347353,           0.
   1924,    12.942668,   9.58051777,           0.
   1925,   11.5911217,   9.32325172,           0.
   1926,   10.8635092,   9.45454597,           0.
   1927,   12.9294548,   10.5278997,           0.
   1928,   11.7518024,   10.6562824,           0.
   1929,   12.7209883,   11.9754009,           0.
   1930,   15.9139347,  0.585426986,           0.
   1931,   17.9490356,   0.52589947,           0.
   1932,   19.8709908,  0.451952726,           0.
   1933,   23.4503288,  0.393156826,           0.
   1934,   21.9473896,  0.459118575,           0.
   1935,   21.4429951,  0.514241219,           0.
   1936,   19.3968487,  0.428231716,           0.
   1937,   17.4520607,   0.53522861,           0.
   1938,   9.44769382,  0.557227612,           0.
   1939,   10.4610443,   0.50808543,           0.
   1940,   11.4325314,  0.484745413,           0.
   1941,   12.4606152,  0.673466384,           0.
   1942,   13.9569569,  0.427201599,           0.
   1943,   14.9170465,  0.479255378,           0.
   1944,   15.4147186,  0.536001623,           0.
   1945,   14.4321671,  0.441385657,           0.
   1946,   13.4812708,  0.449437946,           0.
   1947,   12.9976997,  0.528565884,           0.
   1948,   11.9210234,  0.525175095,           0.
   1949,   10.9500599,  0.488814265,           0.
   1950,   9.95974445,  0.537450612,           0.
   1951,   8.93904114,  0.526011646,           0.
   1952,   1.99654436,   0.39273119,           0.
   1953,    1.0220207,   0.19513081,           0.
   1954,    2.9736762,  0.391511321,           0.
   1955,   3.97691131,  0.597922027,           0.
   1956,   5.50104809,  0.462621361,           0.
   1957,   6.47918272,  0.459854513,           0.
   1958,   7.45802498,  0.466080874,           0.
   1959,   8.43714809,  0.494426638,           0.
   1960,   16.9391861,  0.543899119,           0.
   1961,   18.9197788,  0.431973219,           0.
   1962,   20.8852768,  0.642234683,           0.
   1963,     22.43536,    0.4329651,           0.
   1964,   24.1249752,  0.426152259,           0.
   1965,   22.9252911,  0.404774547,           0.
   1966,   20.3528633,  0.510047495,           0.
   1967,   18.4303818,  0.469097674,           0.
   1968,   16.4239197,  0.569589317,           0.
   1969,   7.94686413,  0.475214779,           0.
   1970,   6.96886396,  0.460281461,           0.
   1971,   5.98801661,  0.460517794,           0.
   1972,   5.01687813,  0.463541806,           0.
   1973,   4.52220869,  0.494242251,           0.
   1974,   3.45437527,  0.459135205,           0.
   1975,   2.49030614,  0.382426977,           0.
   1976,   1.43154585,  0.373707145,           0.
   1977,    23.313158,   1.50103164,           0.
   1978,    20.098999,     4.537745,           0.
   1979,   16.6872349,   7.44569731,           0.
   1980,   1.32653594,  0.883485496,           0.
   1981,   9.12791061,   8.36528206,           0.
   1982,   17.6889915,   7.08543777,           0.
   1983,   20.8573799,   3.89597154,           0.
   1984,    22.265831,   2.53736472,           0.
   1985,   23.9153824,   0.83530879,           0.
   1986,    12.076684,   11.1687002,           0.
   1987,    11.258132,   10.4559889,           0.
   1988,   10.2056389,   9.46085453,           0.
   1989,   8.76289177,   8.02880955,           0.
   1990,   7.69761229,   7.04135418,           0.
   1991,    7.0285182,    6.3302722,           0.
   1992,   4.54227495,   3.96453023,           0.
   1993,    3.9377234,   3.22569942,           0.
   1994,   2.31274223,   1.28257692,           0.
   1995,    18.026701,   6.73090172,           0.
   1996,    15.198473,   9.51207542,           0.
   1997,   15.5417032,   9.15465927,           0.
   1998,   19.5980625,   4.84550714,           0.
   1999,   22.9380207,   1.80973518,           0.
   2000,    6.6885457,   5.98608065,           0.
   2001,   4.90975904,   4.24892855,           0.
   2002,   13.4630089,    11.282897,           0.
   2003,   12.3948383,   11.5893574,           0.
   2004,  0.715159774,  0.285319239,           0.
   2005,   2.74496174,   2.14721775,           0.
   2006,   3.63988042,    2.7299974,           0.
   2007,   5.97623491,   5.29804945,           0.
   2008,   9.87181568,   9.07066822,           0.
   2009,   14.5300055,   10.2390957,           0.
   2010,   13.0929451,    11.624341,           0.
   2011,   14.1851912,   10.5957012,           0.
   2012,   16.2631454,   8.46266365,           0.
   2013,   10.8868532,   10.1627235,           0.
   2014,   8.04866219,    7.3818655,           0.
   2015,   5.62072849,   4.94793653,           0.
   2016,   21.9165726,   2.87790036,           0.
   2017,   18.7011299,   6.03366375,           0.
   2018,    21.203598,    3.5606184,           0.
   2019,   19.0343304,   5.69601393,           0.
   2020,   24.6269779,  0.181545407,           0.
   2021,    21.998188,  0.903570652,           0.
   2022,   13.5458298,  0.861251354,           0.
   2023,   20.1935349,  0.972321749,           0.
   2024,   17.4638462,   1.05646276,           0.
   2025,   11.8103628,  0.971564293,           0.
   2026,   8.87066269,   1.02825248,           0.
   2027,   3.32001543,  0.872856081,           0.
   2028,   5.05696297,  0.911076605,           0.
   2029,   19.3586769,  0.852898359,           0.
   2030,   23.6594372,   1.20336294,           0.
   2031,   17.3616333,   6.75431108,           0.
   2032,   10.5422077,   9.10764503,           0.
   2033,   9.42354107,   7.90399837,           0.
   2034,   12.5148535,   10.8256454,           0.
   2035,    11.411231,   10.0257444,           0.
   2036,   18.3198204,   5.68271112,           0.
   2037,   4.21274614,   2.63294864,           0.
   2038,   19.4163303,    4.2914176,           0.
   2039,   16.3226757,   7.77000999,           0.
   2040,   8.33252621,    6.9857769,           0.
   2041,   5.23852158,   3.78926063,           0.
   2042,   2.60758853,     1.598423,           0.
   2043,   21.6068783,   2.56732535,           0.
   2044,    6.2943635,   4.95782518,           0.
   2045,   14.2360601,   9.91369534,           0.
   2046,   13.1830606,   10.9127712,           0.
   2047,   20.5322227,   3.54087615,           0.
   2048,   1.69175029,   1.17676604,           0.
   2049,   22.9473114,  0.800155044,           0.
   2050,   2.50889874,  0.757915556,           0.
   2051,   5.99969864,  0.925460339,           0.
   2052,   14.3879957,  0.878052235,           0.
   2053,   10.9553108,  0.983970404,           0.
   2054,   21.9981441,   1.33578026,           0.
   2055,   5.04605293,   1.31266451,           0.
   2056,    3.1277771,   1.21623862,           0.
   2057,   13.3820868,   1.40256441,           0.
   2058,   20.3595314,   1.50349104,           0.
   2059,   19.6886921,   1.32186389,           0.
   2060,   6.02742863,   1.36670363,           0.
   2061,   14.3104868,   1.30739832,           0.
   2062,   10.9976902,   1.49458611,           0.
   2063,   2.62780476,   1.12078965,           0.
   2064,    17.417078,    1.5057025,           0.
   2065,   8.73562717,   1.47853923,           0.
   2066,    23.043045,   1.18858969,           0.
   2067,   22.5403652,   1.42703354,           0.
   2068,    5.5075655,   1.48035192,           0.
   2069,   13.9175577,    1.2665745,           0.
   2070,   11.5456657,   1.91140711,           0.
   2071,   19.9250526,   1.79271269,           0.
   2072,   19.2469845,    1.6873821,           0.
   2073,   6.49202871,   1.37594604,           0.
   2074,   14.7268639,   1.37139082,           0.
   2075,   10.5349331,   1.56709337,           0.
   2076,   16.9901791,   1.51454389,           0.
   2077,   8.31102371,   1.44490242,           0.
   2078,   4.55574322,   1.78775692,           0.
   2079,   13.3436184,   2.04312563,           0.
   2080,   11.9878683,   1.78969252,           0.
   2081,   20.6397419,   1.63381112,           0.
   2082,   19.5364685,   2.21184516,           0.
   2083,   18.6092281,   1.22061419,           0.
   2084,   5.79880762,   1.90967667,           0.
   2085,   6.95352173,   1.37568641,           0.
   2086,   15.1288214,   1.51272166,           0.
   2087,   14.6075039,   1.73528743,           0.
   2088,   11.0897751,   2.00657129,           0.
   2089,   10.0763226,    1.6071887,           0.
   2090,   22.6028652,   2.17163348,           0.
   2091,   17.0761642,   1.92571998,           0.
   2092,   16.5621643,   1.61979878,           0.
   2093,   7.87250519,   1.41546917,           0.
   2094,     8.640028,   1.83178067,           0.
   2095,    21.830801,   1.72136819,           0.
   2096,   8.88822651,   2.05557251,           0.
   2097,   17.5942059,   2.04039097,           0.
   2098,    14.279829,   2.06383824,           0.
   2099,   5.85571814,   2.52472448,           0.
   2100,   20.5255775,   1.98408294,           0.
   2101,   12.1972961,   2.37499356,           0.
   2102,   13.6182241,   2.42063856,           0.
   2103,    4.7530179,   2.20450306,           0.
   2104,   4.70361471,   1.31632519,           0.
   2105,    13.044529,   1.66416764,           0.
   2106,   12.3927689,   1.53018177,           0.
   2107,   20.8210659,   1.35905457,           0.
   2108,   15.3226776,   1.06038308,           0.
   2109,   18.4860802,  0.910669804,           0.
   2110,   16.4434395,   1.12576866,           0.
   2111,   9.98701668,   1.07600188,           0.
   2112,   7.91224623,  0.945291758,           0.
   2113,   6.96166849,  0.919977725,           0.
   2114,   18.7937241,   2.05172253,           0.
   2115,   6.95744991,   1.80563962,           0.
   2116,   15.1812372,   2.09463716,           0.
   2117,   10.1052351,   2.14207244,           0.
   2118,   17.8329849,   1.66199446,           0.
   2119,   9.09215546,    1.6197468,           0.
   2120,   16.3560658,   2.25406122,           0.
   2121,   7.82239485,   1.87796569,           0.
   2122,    21.637394,   1.28747725,           0.
   2123,   21.9573746,    2.2750361,           0.
   2124,   12.1357985,   1.13508296,           0.
   2125,   20.5542583,   1.11492467,           0.
   2126,   8.56890583,   2.24293208,           0.
   2127,   16.9024811,   2.45036459,           0.
   2128,   20.3509197,   2.42565179,           0.
   2129,   11.6090107,   2.97708988,           0.
   2130,   14.1821899,   2.55791402,           0.
   2131,   5.17441988,    2.5618484,           0.
   2132,   7.41713619,   1.38309813,           0.
   2133,   15.4819679,   1.74381816,           0.
   2134,   9.66958237,   2.15289164,           0.
   2135,   18.4346218,   1.49930608,           0.
   2136,   14.9700117,   2.47373533,           0.
   2137,    6.2950592,   2.68762159,           0.
   2138,   3.93173122,   1.24896598,           0.
   2139,   18.4425507,   2.52353835,           0.
   2140,   6.67389441,   2.30307174,           0.
   2141,   15.3783226,   2.37420917,           0.
   2142,   10.0231028,   2.61794043,           0.
   2143,   2.98252177,   1.76371932,           0.
   2144,   20.9539642,   2.59751749,           0.
   2145,   3.93174386,   1.66530824,           0.
   2146,   3.65787268,    1.0651741,           0.
   2147,   8.75041962,   3.03517103,           0.
   2148,   8.09280491,   2.43760419,           0.
   2149,   17.5269566,   2.77170444,           0.
   2150,   16.5836296,   2.52614117,           0.
   2151,   16.1345711,   1.81692851,           0.
   2152,   20.5604401,   2.86555719,           0.
   2153,   19.8706913,    2.1873579,           0.
   2154,   11.1926785,   2.46790552,           0.
   2155,   12.0385818,   3.00126767,           0.
   2156,   13.3166981,   2.70883584,           0.
   2157,   4.82338524,   2.84438586,           0.
   2158,   21.5437088,  0.956631064,           0.
   2159,   14.4881067,   2.85856843,           0.
   2160,   6.20130253,   3.03908968,           0.
   2161,   18.8456383,   2.50500321,           0.
   2162,   10.3808908,   2.74870253,           0.
   2163,   9.62437153,   2.87558913,           0.
   2164,   7.34226656,   2.20809388,           0.
   2165,    18.118969,   2.59289432,           0.
   2166,   3.13917971,   2.43303633,           0.
   2167,   13.1514015,  0.996462047,           0.
   2168,   8.06186962,   2.94297814,           0.
   2169,    16.490551,   2.86016822,           0.
   2170,   19.8588181,   2.59905005,           0.
   2171,   11.1572752,   2.97871113,           0.
   2172,   12.6515427,   2.72565269,           0.
   2173,   4.60809231,   2.55978251,           0.
   2174,   3.76810002,   2.15899372,           0.
   2175,   19.2286892,   2.42861533,           0.
   2176,   10.8559427,   2.51633501,           0.
   2177,   9.86575985,   3.01349521,           0.
   2178,   16.0015488,   2.62769532,           0.
   2179,   7.55002213,   2.76627469,           0.
   2180,   18.4728241,   2.97701764,           0.
   2181,   15.5332537,   2.80076218,           0.
   2182,   6.82233858,      2.75088,           0.
   2183,    9.0082531,   3.35643816,           0.
   2184,   14.5859632,   3.52617812,           0.
   2185,   6.26267481,    3.4272027,           0.
   2186,   11.0865421,    3.5068121,           0.
   2187,   19.5777645,   3.26090527,           0.
   2188,   12.9821949,   2.36105752,           0.
   2189,   16.4112034,   3.32029319,           0.
   2190,   7.88739681,   3.43604183,           0.
   2191,   8.65044785,   3.78859305,           0.
   2192,   17.0141163,    3.4777019,           0.
   2193,   19.4118671,   2.83022189,           0.
   2194,   10.7364531,   2.93242288,           0.
   2195,   6.38639736,   3.79925823,           0.
   2196,   14.9889832,   3.80378628,           0.
   2197,   5.75744534,   3.54427195,           0.
   2198,   13.8297739,   3.67197561,           0.
   2199,   9.16034031,   2.65417862,           0.
   2200,   17.8767014,   2.33913136,           0.
   2201,   17.9887886,   3.76175737,           0.
   2202,   9.30695438,   3.58721423,           0.
   2203,   11.5068178,   3.99663329,           0.
   2204,   19.9946632,   3.58667994,           0.
   2205,   9.14504719,   3.91646671,           0.
   2206,   17.4253426,    3.9103291,           0.
   2207,   6.73858213,   3.35514283,           0.
   2208,   15.3396921,   3.46478891,           0.
   2209,   5.97637415,    3.9778657,           0.
   2210,   14.2621088,   4.05389547,           0.
   2211,   13.4215813,   3.37684774,           0.
   2212,   18.4390564,   3.40108752,           0.
   2213,   9.59684849,   3.31133008,           0.
   2214,   12.0609074,   3.54302549,           0.
   2215,    11.090333,   4.01737118,           0.
   2216,   19.6707268,    3.6931839,           0.
   2217,   13.4946022,   4.05773115,           0.
   2218,   12.8510399,   4.14780474,           0.
   2219,   13.1956682,   4.43654203,           0.
   2220,   14.0112696,   4.66969442,           0.
   2221,   12.4817219,   3.85124183,           0.
   2222,   13.2698288,   5.05758858,           0.
   2223,   14.3378468,   4.62016582,           0.
   2224,   12.2523766,   4.28524208,           0.
   2225,   12.0431948,    4.6861825,           0.
   2226,   12.9403915,   4.82512426,           0.
   2227,   11.2690067,   4.90736151,           0.
   2228,   12.3572235,   4.96435547,           0.
   2229,   9.84265232,   3.56532884,           0.
   2230,   18.8412971,    3.4418304,           0.
   2231,   11.8933411,    4.0757885,           0.
   2232,    15.329792,   4.11409998,           0.
   2233,   6.49089289,   4.11376667,           0.
   2234,   14.3254061,   5.07653379,           0.
   2235,    8.1537199,    3.9110868,           0.
   2236,   18.4171562,   3.84999943,           0.
   2237,   9.49400234,   3.81208515,           0.
   2238,   7.60119247,   3.81575871,           0.
   2239,   15.9171257,   3.62616372,           0.
   2240,   12.4479227,   5.75612783,           0.
   2241,   4.62141228,  0.938749552,           0.
   2242,   19.1824036,   3.39453053,           0.
   2243,   10.5485973,   3.53159213,           0.
   2244,   20.8758755,    3.2235291,           0.
   2245,   4.78865051,   3.71455216,           0.
   2246,   11.4773693,   4.42325926,           0.
   2247,   10.9004784,   5.09352636,           0.
   2248,   13.0735121,   5.46089745,           0.
   2249,    17.219059,    4.2777853,           0.
   2250,     9.216259,   4.39515495,           0.
   2251,   4.39165068,   3.02457547,           0.
   2252,   14.7354717,   4.63860083,           0.
   2253,   10.1816378,   4.32409811,           0.
   2254,   18.3730984,   4.32369471,           0.
   2255,   7.21336699,   3.68457437,           0.
   2256,   6.85644436,   4.21054029,           0.
   2257,   15.1482687,   4.64079618,           0.
   2258,   14.3312054,   5.48901367,           0.
   2259,    4.2298727,   3.61642003,           0.
   2260,   16.5821075,   4.41381502,           0.
   2261,   7.77542019,   4.34548283,           0.
   2262,   11.1148558,   5.52460289,           0.
   2263,   8.56844234,   4.95993614,           0.
   2264,   17.0153408,   4.66359091,           0.
   2265,   13.0118761,   5.97930765,           0.
   2266,   13.8784027,   5.55748463,           0.
   2267,    17.708746,   4.57696009,           0.
   2268,   9.70612907,   4.48659611,           0.
   2269,   11.9786768,    5.9348402,           0.
   2270,   21.5595531,   3.22012115,           0.
   2271,   10.0522251,   3.88375139,           0.
   2272,   18.8636608,    3.8762188,           0.
   2273,   6.59012079,    4.6177597,           0.
   2274,   11.3675747,   5.89571524,           0.
   2275,    9.1151247,   5.01286602,           0.
   2276,   17.4610157,   4.96905565,           0.
   2277,   13.4914083,   5.85391235,           0.
   2278,    12.411972,   6.29723597,           0.
   2279,   10.7456369,   4.63156128,           0.
   2280,    7.2188983,    4.5308609,           0.
   2281,   15.7008085,   4.96739054,           0.
   2282,   14.0678024,   5.99018145,           0.
   2283,   8.05808449,   4.90827131,           0.
   2284,   16.4890327,   4.75357342,           0.
   2285,   18.3043022,   4.87322426,           0.
   2286,   10.2841978,   4.84833765,           0.
   2287,   15.2223063,   5.07258797,           0.
   2288,   10.7147303,   5.80075264,           0.
   2289,   11.3871737,   6.51087809,           0.
   2290,   14.3342924,   6.28189421,           0.
   2291,   6.96159267,   4.90689611,           0.
   2292,   15.2856388,   5.58338022,           0.
   2293,   7.85943937,   5.51009655,           0.
   2294,   16.3892574,    5.3213892,           0.
   2295,   7.43898487,   4.18856621,           0.
   2296,   16.1492596,    4.8397975,           0.
   2297,   14.6837969,   6.00529051,           0.
   2298,   18.9026432,   4.34148598,           0.
   2299,   12.2231627,   6.68375778,           0.
   2300,   5.94100094,   4.62454414,           0.
   2301,    8.9502449,   5.57765818,           0.
   2302,   17.1567993,   5.35018015,           0.
   2303,   13.2705679,   6.43290186,           0.
   2304,   11.7041044,   6.74575424,           0.
   2305,   13.7707405,    6.8492136,           0.
   2306,   5.26731491,   4.58725739,           0.
   2307,   8.40588093,   5.98660183,           0.
   2308,   16.8183117,   5.70857191,           0.
   2309,    9.9223156,   6.15460825,           0.
   2310,   17.5917797,   5.69101238,           0.
   2311,   15.0719242,   5.95797873,           0.
   2312,   16.2946796,   3.79407287,           0.
   2313,   7.84856319,   4.01545763,           0.
   2314,   19.8497086,   4.11525393,           0.
   2315,   15.5875597,   6.01843691,           0.
   2316,   11.2207355,   6.88760138,           0.
   2317,   14.1561031,   6.81365585,           0.
   2318,   8.03518867,   6.04084682,           0.
   2319,   10.2751818,     6.098948,           0.
   2320,   13.3908787,   6.90365744,           0.
   2321,   11.7539444,   7.31305027,           0.
   2322,   9.36929131,   5.72353649,           0.
   2323,   20.5032043,   4.22454977,           0.
   2324,    18.651413,   5.36471558,           0.
   2325,   12.5571041,   6.96287107,           0.
   2326,   8.78577042,   6.10565138,           0.
   2327,   17.2915344,   6.05502558,           0.
   2328,   9.70087242,   5.94484901,           0.
   2329,   10.9270248,   6.76751137,           0.
   2330,   8.26349068,   6.34795952,           0.
   2331,   16.3952312,   6.02321959,           0.
   2332,   11.3735199,   7.74595499,           0.
   2333,   13.4353189,   7.38761806,           0.
   2334,   19.3521843,   5.33497429,           0.
   2335,    10.051342,   6.57465506,           0.
   2336,    15.260417,   6.27133703,           0.
   2337,   10.9915686,   6.26578426,           0.
   2338,   18.9445763,   4.78951836,           0.
   2339,   12.1223707,   7.75881958,           0.
   2340,    14.285533,   7.27458477,           0.
   2341,   16.4058781,   6.49132919,           0.
   2342,   9.48211956,   6.41844893,           0.
   2343,   10.2711096,   6.79127645,           0.
   2344,   15.1141338,   6.89431381,           0.
   2345,   11.7409906,   7.76813602,           0.
   2346,   13.5733223,   7.91469288,           0.
   2347,   14.3699961,   7.90150499,           0.
   2348,   12.6147079,   8.13106632,           0.
   2349,   7.99066973,   6.68084002,           0.
   2350,   10.8921232,   8.10969639,           0.
   2351,   10.5064335,   7.01704645,           0.
   2352,   15.9610004,   5.82326508,           0.
   2353,   7.38990879,   5.94195652,           0.
   2354,   8.95684338,   6.78949547,           0.
   2355,   10.6758461,   6.73825502,           0.
   2356,   15.4879513,   6.65388203,           0.
   2357,   14.5307636,   6.67025328,           0.
   2358,    7.3609786,   6.68780375,           0.
   2359,   13.0860605,   8.02650642,           0.
   2360,   13.9276581,   7.71955061,           0.
   2361,   12.1576576,   8.20216179,           0.
   2362,   10.6315479,   7.56254768,           0.
   2363,   10.8244267,   8.55250645,           0.
   2364,    10.302907,   7.38246059,           0.
   2365,   9.14873791,   6.26848555,           0.
   2366,   16.1396599,    6.1918087,           0.
   2367,   7.03914499,    5.6058259,           0.
   2368,   16.0944481,   6.76702499,           0.
   2369,   15.3588381,   7.31330204,           0.
   2370,   10.0752916,    7.7920785,           0.
   2371,   10.0166283,    7.1323452,           0.
   2372,   6.33377409,   5.64367342,           0.
   2373,   13.1824017,    8.5807333,           0.
   2374,   10.4650364,   8.01174068,           0.
   2375,   11.2712507,   8.62825108,           0.
   2376,    9.3824873,   7.01819134,           0.
   2377,   12.1454926,   8.70229912,           0.
   2378,    15.745101,    7.0394845,           0.
   2379,   14.4171753,   8.79359722,           0.
   2380,   9.80418301,    6.8400321,           0.
   2381,   11.6919374,    8.7093401,           0.
   2382,    10.835494,   8.91334152,           0.
   2383,     12.62008,   9.16181183,           0.
   2384,   14.7855034,   8.36897087,           0.
   2385,   9.05667686,   7.55645514,           0.
   2386,   10.2850285,   8.59701157,           0.
   2387,   15.2174664,   8.02239227,           0.
   2388,   13.7211313,    9.0673027,           0.
   2389,   8.40645504,   7.70753574,           0.
   2390,   14.8390064,      9.14958,           0.
   2391,   11.1499023,   9.08316708,           0.
   2392,   12.1204529,   9.24064445,           0.
   2393,   13.1696033,   9.17036533,           0.
   2394,   15.1788712,    8.7746563,           0.
   2395,   9.50628662,   8.71462917,           0.
   2396,   14.8643894,    9.8778801,           0.
   2397,   14.1665154,   9.24795723,           0.
   2398,   12.1707087,   9.79577732,           0.
   2399,   11.7462454,    9.9445219,           0.
   2400,   12.7235203,    10.117981,           0.
   2401,   13.1039457,   9.88119698,           0.
   2402,   15.8965702,   8.80568314,           0.
   2403,   13.6481247,   9.94580173,           0.
   2404,   15.9423046,   8.09279156,           0.
   2405,   12.2892361,   10.3618879,           0.
   2406,   13.3149719,   10.2392578,           0.
   2407,   14.9191179,   7.59835243,           0.
   2408,   10.5474768,   9.83466625,           0.
   2409,   16.3841496,   7.10768986,           0.
   2410,   16.7137642,   6.78884268,           0.
   2411,   17.3417549,   7.43689823,           0.
   2412,   17.6759186,    6.3942728,           0.
   2413,   18.3618851,   6.37848854,           0.
   2414,   17.9909496,   6.03595352,           0.
   2415,   1.01472497,  0.573298693,           0.
   2416,   2.03145099,   1.51952219,           0.
   2417,   16.9875565,   7.78324413,           0.
   2418,   16.6261826,   8.12421417,           0.
   2419,   2.37867618,   1.85761011,           0.
   2420,   13.8298435,   10.9421921,           0.
   2421,   1.56315315,  0.693478167,           0.
   2422,    13.910203,   10.2645531,           0.
   2423,   12.7927475,   11.2388935,           0.
   2424,   23.3863182,   1.03360105,           0.
   2425,   2.83938742,    1.4155333,           0.
   2426,    16.023304,   7.40975857,           0.
   2427,   2.89483118,   1.02193582,           0.
   2428,   21.3675251,   1.59863102,           0.
   2429,   20.9395847,    1.6752907,           0.
   2430,   13.9457121,   9.63396168,           0.
   2431,   11.1744604,   9.74083138,           0.
   2432,    20.041769,   1.39395273,           0.
   2433,   19.3101463,   1.27422559,           0.
   2434,   18.9311962,   1.24421573,           0.
   2435,   11.8239813,    1.3485142,           0.
   2436,   11.4367085,   1.42773926,           0.
   2437,   9.64337635,   1.68380904,           0.
   2438,   4.36470747,   1.45268273,           0.
   2439,   13.6163139,   1.18256617,           0.
   2440,   3.42664766,   1.53203785,           0.
   2441,   4.23813963,   1.90577304,           0.
   2442,   16.6683064,   6.16518927,           0.
   2443,    12.605051,   9.64827442,           0.
   2444,   9.33324337,   1.80795717,           0.
   2445,   4.86468077,   1.59688807,           0.
   2446,   13.4076118,   9.60518265,           0.
   2447,   21.7083912,    2.0568223,           0.
   2448,   13.7587872,   1.73134387,           0.
   2449,   9.26476002,   2.16669464,           0.
   2450,   6.08791065,   1.70561767,           0.
   2451,   5.48676682,   2.22409534,           0.
   2452,   11.6387634,   2.42805409,           0.
   2453,   5.07946157,    3.2431376,           0.
   2454,   19.6014633,   1.74571598,           0.
   2455,    18.855011,   1.63019633,           0.
   2456,   16.3713989,   5.72414541,           0.
   2457,   20.8784828,   2.04984784,           0.
   2458,   20.7413902,   2.36747217,           0.
   2459,   17.3605404,   1.82598543,           0.
   2460,    6.1151104,   2.17955112,           0.
   2461,   20.1443748,   2.16908813,           0.
   2462,   10.9915752,   7.67887688,           0.
   2463,    18.004921,   3.33854699,           0.
   2464,   11.3225069,   8.17846489,           0.
   2465,   14.9216146,   1.88565147,           0.
   2466,   14.2337122,   1.70165706,           0.
   2467,   13.0348396,   3.05974412,           0.
   2468,   12.7587509,   3.45303631,           0.
   2469,   8.79821873,   2.44639611,           0.
   2470,    6.3617363,   2.39653087,           0.
   2471,   7.01444054,   2.19557691,           0.
   2472,   17.6408672,   3.66669083,           0.
   2473,   14.5354338,   1.99154913,           0.
   2474,   12.5053959,   7.63528252,           0.
   2475,   7.61616993,   4.75887156,           0.
   2476,   7.71281385,   2.32961297,           0.
   2477,   6.79960871,   3.73624349,           0.
   2478,   13.9034653,   2.77728534,           0.
   2479,   13.6673565,   3.02436352,           0.
   2480,   13.1366978,   3.75706768,           0.
   2481,   8.50823402,    2.7406919,           0.
   2482,   8.38177109,   2.47867656,           0.
   2483,      11.0969,   7.26920605,           0.
   2484,   17.2674828,   2.31024027,           0.
   2485,   17.5413208,   3.30573606,           0.
   2486,   14.4466238,   2.35167861,           0.
   2487,   15.6481409,   3.86738539,           0.
   2488,   8.17174053,    4.3996129,           0.
   2489,   14.7627792,   5.08565426,           0.
   2490,   7.17954445,   2.50653529,           0.
   2491,   14.6311188,   2.56779671,           0.
   2492,   14.0751038,   6.46557283,           0.
   2493,   11.5126534,   7.04775524,           0.
   2494,   15.5691977,   4.51118326,           0.
   2495,   15.0840616,   4.31241417,           0.
   2496,   12.0579453,   7.43250132,           0.
   2497,   13.0741901,   6.94379711,           0.
   2498,    14.355319,   5.82310009,           0.
   2499,   13.5196276,   4.72467947,           0.
   2500,   9.62458229,   4.11912823,           0.
   2501,    11.137763,     4.493752,           0.
   2502,   11.9972591,   6.98449564,           0.
   2503,   10.0485535,   5.59495449,           0.
   2504,   12.2863331,   7.24702072,           0.
   2505,   13.5792799,   5.29454994,           0.
   2506,   13.3759804,   5.53770399,           0.
   2507,   11.5673504,   4.73261499,           0.
   2508,   11.9119282,   6.46493721,           0.
   2509,    12.083231,   5.32877398,           0.
   2510,   12.1047058,   6.23071957,           0.
   2511,   11.7382507,   5.60481167,           0.
   2512,   11.4813118,   5.27025843,           0.
   2513,    11.637681,   40.5824432,           0.
   2514,   8.42037678,   43.8134308,           0.
   2515,   5.19179296,   46.8852997,           0.
   2516,   1.98320663,   50.0794868,           0.
   2517,   2.89818811,   49.9597473,           0.
   2518,   4.20039463,   49.6060753,           0.
   2519,   5.65335655,   49.8906136,           0.
   2520,   6.56721544,   49.9341583,           0.
   2521,   7.49084473,   49.9255676,           0.
   2522,   8.43262482,   49.8631744,           0.
   2523,   9.41969776,   49.7551575,           0.
   2524,   10.4326696,   49.8237076,           0.
   2525,    11.395895,   49.8366356,           0.
   2526,   12.7329454,   49.5779419,           0.
   2527,   14.1349287,   49.8780594,           0.
   2528,   14.9864159,   49.9832687,           0.
   2529,   15.8969231,   49.7335205,           0.
   2530,   16.9128895,   49.7980728,           0.
   2531,    17.937561,   49.6087151,           0.
   2532,   18.9764919,   49.8670998,           0.
   2533,   19.9046421,   49.9554825,           0.
   2534,   21.1765461,   49.6950455,           0.
   2535,   22.4539433,   50.1338081,           0.
   2536,   23.3891926,   49.9744682,           0.
   2537,   3.19947195,    49.015461,           0.
   2538,   4.23783207,   48.5337181,           0.
   2539,   5.02516794,   48.8862152,           0.
   2540,   6.29121542,   48.6008911,           0.
   2541,   7.58548689,   48.9082565,           0.
   2542,   9.70039749,   48.6506805,           0.
   2543,   10.4882107,   48.8701973,           0.
   2544,   11.2948751,   48.8818474,           0.
   2545,   12.5114651,   48.6227188,           0.
   2546,   13.7942533,   48.6867447,           0.
   2547,   14.9482479,    48.770462,           0.
   2548,   15.7017069,   48.9901085,           0.
   2549,     17.04776,   48.8294258,           0.
   2550,   18.1386852,   48.7424698,           0.
   2551,    19.150383,   48.9706993,           0.
   2552,     20.05793,   48.9218216,           0.
   2553,   21.3305492,   49.0036888,           0.
   2554,   22.2565346,   48.7878113,           0.
   2555,   4.16784906,   47.8879547,           0.
   2556,   5.10733366,   47.5273933,           0.
   2557,   6.40944433,   47.5876884,           0.
   2558,   7.26098299,   47.9925995,           0.
   2559,   8.39951706,   47.2462311,           0.
   2560,   9.64966106,   47.7202339,           0.
   2561,   10.5669594,   47.6301842,           0.
   2562,   11.4876537,   47.4084702,           0.
   2563,   12.7714663,   47.5877876,           0.
   2564,    13.775897,   47.7227974,           0.
   2565,   14.8690166,   47.6438293,           0.
   2566,   15.5194063,    47.993515,           0.
   2567,   17.0493984,   48.0932045,           0.
   2568,   17.6230488,   47.7511215,           0.
   2569,   19.2077789,    47.854908,           0.
   2570,   20.1427746,   47.9139328,           0.
   2571,   21.0237446,   47.9319916,           0.
   2572,   6.21890783,   46.5670204,           0.
   2573,   7.53811979,    46.641571,           0.
   2574,   8.48742867,   46.2893562,           0.
   2575,   9.74507332,    46.536438,           0.
   2576,   10.8382244,   46.7392311,           0.
   2577,    11.556653,   46.6304893,           0.
   2578,   12.9121599,    46.566227,           0.
   2579,   13.8847055,    46.611618,           0.
   2580,   14.4780569,   46.8452568,           0.
   2581,   16.1020546,   46.8761826,           0.
   2582,    17.131855,   46.9122124,           0.
   2583,   18.1921177,   47.0750809,           0.
   2584,   19.2536469,   46.7439651,           0.
   2585,   19.9899483,   46.8089104,           0.
   2586,   6.27621174,   45.8746948,           0.
   2587,   7.28755951,    45.551754,           0.
   2588,   8.55711555,   45.6186562,           0.
   2589,   9.74039745,   45.8158684,           0.
   2590,   10.4304991,   45.7132416,           0.
   2591,   11.9072266,   45.4259224,           0.
   2592,   12.5606232,   45.8445129,           0.
   2593,   13.5519762,   45.7001266,           0.
   2594,   14.8843184,   45.7201805,           0.
   2595,   15.9894733,   45.7296715,           0.
   2596,   17.2018738,    45.745697,           0.
   2597,   18.1170387,   45.7377853,           0.
   2598,    18.918684,   45.7633629,           0.
   2599,   7.33594131,   44.8412743,           0.
   2600,   8.34513855,   44.5319176,           0.
   2601,   9.55510235,    44.842907,           0.
   2602,   10.7996321,   44.5733604,           0.
   2603,   11.8384466,   44.5036621,           0.
   2604,   12.6751366,   44.7759819,           0.
   2605,    14.058177,    44.603508,           0.
   2606,    15.053091,   44.6392097,           0.
   2607,    15.933218,   44.4792442,           0.
   2608,   16.7878227,    44.850811,           0.
   2609,   17.8923492,   44.7080879,           0.
   2610,   9.61485767,   43.6165924,           0.
   2611,   10.7585392,   43.5873909,           0.
   2612,   11.6926317,   43.6671448,           0.
   2613,   12.5059862,   43.4552536,           0.
   2614,   13.4897547,   43.1347694,           0.
   2615,   15.1484528,   43.4186859,           0.
   2616,   15.8594017,    43.325428,           0.
   2617,   16.9090862,   43.6442299,           0.
   2618,   10.5655918,   42.3072433,           0.
   2619,   11.5040913,   42.6489944,           0.
   2620,   12.6450825,   42.2610321,           0.
   2621,   13.8164682,   42.3439178,           0.
   2622,   14.7769508,   42.3705139,           0.
   2623,   16.2216759,   42.3285561,           0.
   2624,   10.9352493,   41.2783318,           0.
   2625,   11.6613178,   41.3118935,           0.
   2626,   12.7490215,    41.479763,           0.
   2627,   13.7371492,   41.3144875,           0.
   2628,   14.8355827,   41.6536903,           0.
   2629,   13.0419846,   40.5356712,           0.
   2630,   13.7449045,   40.5704956,           0.
   2631,   12.6948795,   39.5103951,           0.
   2632,   15.9424477,   50.3123016,           0.
   2633,   14.9715004,   50.3923569,           0.
   2634,   14.0183249,   50.3432465,           0.
   2635,   12.9977398,   50.1145439,           0.
   2636,   11.4326801,   50.3242493,           0.
   2637,   10.4412212,   50.3194199,           0.
   2638,   9.44548416,   50.3014946,           0.
   2639,   8.46182251,   50.3415222,           0.
   2640,   7.48459196,   50.3778229,           0.
   2641,   6.51978302,   50.3827553,           0.
   2642,   5.55287981,    50.349247,           0.
   2643,   4.50110865,   50.1479034,           0.
   2644,   2.95739269,   50.3963547,           0.
   2645,   3.43978882,   50.3584824,           0.
   2646,   3.93853951,   50.2792854,           0.
   2647,   5.05917645,   50.2895279,           0.
   2648,   6.03629017,   50.3735161,           0.
   2649,   7.00289011,   50.3832779,           0.
   2650,   7.97009754,   50.3647575,           0.
   2651,    8.9546814,   50.3171844,           0.
   2652,   9.94125843,   50.3064651,           0.
   2653,   10.9387875,    50.327877,           0.
   2654,   11.9254074,   50.2984085,           0.
   2655,   12.4286966,   50.2380867,           0.
   2656,   13.5355835,   50.2650414,           0.
   2657,   14.4930954,   50.3828163,           0.
   2658,   15.4599934,   50.3651772,           0.
   2659,   16.4305096,    50.303833,           0.
   2660,   1.95561624,   50.4246025,           0.
   2661,   1.29720509,   50.3732872,           0.
   2662,   2.47409487,   50.4215622,           0.
   2663,   23.4112053,    50.432003,           0.
   2664,   24.3881111,   50.6256218,           0.
   2665,   22.4339542,    50.462326,           0.
   2666,   21.4432678,   50.2122955,           0.
   2667,   19.9103107,   50.3864212,           0.
   2668,   18.9375362,   50.3382301,           0.
   2669,    17.933651,   50.2541466,           0.
   2670,   16.9327526,   50.2973709,           0.
   2671,   17.4362545,   50.2736855,           0.
   2672,   18.4379768,   50.2940407,           0.
   2673,   19.4275188,   50.3693657,           0.
   2674,   20.3902588,   50.3804398,           0.
   2675,   20.8892269,   50.3238831,           0.
   2676,   21.9702225,   50.3978348,           0.
   2677,   22.9123898,   50.4514198,           0.
   2678,   23.9783134,   50.4483986,           0.
   2679,   5.25176144,   46.2131767,           0.
   2680,   18.9862518,    45.112606,           0.
   2681,   20.7510681,   46.8890953,           0.
   2682,   8.46410656,   43.0830307,           0.
   2683,   9.87664127,   41.6390762,           0.
   2684,    17.623909,   43.7009735,           0.
   2685,   24.0864258,   49.9383659,           0.
   2686,   22.7664452,   48.8860168,           0.
   2687,    22.196146,   48.2848854,           0.
   2688,   16.5748119,   42.6667633,           0.
   2689,   1.49497116,    49.982399,           0.
   2690,   3.17744827,   48.3282394,           0.
   2691,   7.73627472,   43.7767906,           0.
   2692,   8.82453346,   42.7362099,           0.
   2693,    23.116148,   49.5593758,           0.
   2694,    20.051775,   46.1680565,           0.
   2695,   3.51166034,   47.9663277,           0.
   2696,    6.6707921,    44.826416,           0.
   2697,   7.37795639,   44.1273651,           0.
   2698,   11.6390038,   39.8736229,           0.
   2699,   13.4025278,   39.5159035,           0.
   2700,   4.18912697,   47.2393723,           0.
   2701,   10.5830002,   40.9292488,           0.
   2702,   15.8725357,   41.9869919,           0.
   2703,   2.47105837,   49.0258331,           0.
   2704,   5.60826445,   45.8686218,           0.
   2705,   6.31721163,   45.1744766,           0.
   2706,   10.9349346,    40.580574,           0.
   2707,    11.993041,   39.5183411,           0.
   2708,   15.5272703,   41.6435699,           0.
   2709,   14.8210249,   40.9432297,           0.
   2710,   13.7533998,   39.8704834,           0.
   2711,   24.6953773,   50.5349388,           0.
   2712,   19.6966305,   45.8152199,           0.
   2713,   21.8235588,   47.9594345,           0.
   2714,    17.967598,   44.0557213,           0.
   2715,    16.926897,   43.0053978,           0.
   2716,   2.09038186,   49.3233337,           0.
   2717,   4.53835154,   46.8932304,           0.
   2718,    9.5263443,   42.0061417,           0.
   2719,   21.0938396,   47.2502174,           0.
   2720,   18.6430912,   44.7614441,           0.
   2721,   14.4605436,   40.5884743,           0.
   2722,  0.934332728,   50.5698891,           0.
   2723,   11.8589678,   49.7952118,           0.
   2724,   5.22076941,     49.81744,           0.
   2725,   3.34511375,   49.9239159,           0.
   2726,   13.7278309,   49.7632713,           0.
   2727,   16.4212418,   49.7947845,           0.
   2728,   22.1235142,   50.0580635,           0.
   2729,   20.3346119,   49.9748688,           0.
   2730,   1.74645531,   49.6183167,           0.
   2731,   21.4195423,   48.3031693,           0.
   2732,    5.9157896,    46.215992,           0.
   2733,   9.19351006,   43.1466179,           0.
   2734,   20.3232498,   47.1860847,           0.
   2735,   10.2247286,    41.980011,           0.
   2736,   4.83185387,   47.2028351,           0.
   2737,   11.2907276,   40.9368896,           0.
   2738,   22.9030933,   49.2151718,           0.
   2739,   19.2854404,   46.1096458,           0.
   2740,   14.1029129,   40.9424171,           0.
   2741,   3.86375475,   48.2734146,           0.
   2742,   8.04785156,   44.1529007,           0.
   2743,   6.98081779,   45.1878777,           0.
   2744,   15.1662331,   42.0023918,           0.
   2745,   16.2124577,    42.990139,           0.
   2746,   12.3416386,   39.8610649,           0.
   2747,   23.7295017,   49.6466103,           0.
   2748,   19.4478645,   49.9216156,           0.
   2749,   22.8754578,   50.0808449,           0.
   2750,   2.44528723,   50.0324135,           0.
   2751,   6.10500002,   49.9231987,           0.
   2752,   14.5602322,   49.9497223,           0.
   2753,   10.9190416,    49.842926,           0.
   2754,   22.1721497,   49.5564766,           0.
   2755,   5.02017641,   49.2923317,           0.
   2756,   3.25665569,    49.568737,           0.
   2757,   13.5989408,    49.141758,           0.
   2758,    11.779974,   49.2993546,           0.
   2759,   20.5819397,   49.4869156,           0.
   2760,   19.4884777,   49.4895897,           0.
   2761,   5.75675774,   49.4353981,           0.
   2762,   14.2847338,    49.427166,           0.
   2763,    10.903389,   49.3703232,           0.
   2764,   22.7357521,   49.7218971,           0.
   2765,   16.4700603,    49.327095,           0.
   2766,   2.35069752,   49.6428452,           0.
   2767,   5.45468092,   48.9392395,           0.
   2768,   2.83172584,   49.4312172,           0.
   2769,   14.1161842,   48.8561172,           0.
   2770,   11.3487082,   49.3511543,           0.
   2771,   19.9658699,   49.4993896,           0.
   2772,   19.0504093,   49.4121666,           0.
   2773,   6.23218679,   49.0292473,           0.
   2774,   14.8032322,    49.135704,           0.
   2775,   10.4452267,    49.342205,           0.
   2776,   16.8789368,   49.3563004,           0.
   2777,   4.77553892,   49.1616516,           0.
   2778,   13.3003826,   48.9843826,           0.
   2779,   11.6931095,   48.8089561,           0.
   2780,   20.6556702,   48.9134407,           0.
   2781,    19.854681,   49.1720657,           0.
   2782,   18.6214275,    49.311985,           0.
   2783,   6.61467123,    49.479599,           0.
   2784,   5.84437227,   48.9892273,           0.
   2785,   14.6140985,   48.6647415,           0.
   2786,   15.3300238,   49.6495056,           0.
   2787,   9.95897102,   49.2727127,           0.
   2788,    10.888793,    48.918335,           0.
   2789,   2.82995701,   48.6816521,           0.
   2790,   16.8301525,   49.0252037,           0.
   2791,   17.2709846,   49.2520142,           0.
   2792,   3.55606127,   49.3409653,           0.
   2793,    16.273077,   48.7785378,           0.
   2794,   11.1949387,   48.4090919,           0.
   2795,   19.7151814,    48.734024,           0.
   2796,   20.3192101,   48.6076889,           0.
   2797,   12.0104208,    48.247345,           0.
   2798,   13.4470577,   48.4469719,           0.
   2799,   4.83121729,   48.3261452,           0.
   2800,   4.57096529,   49.4054527,           0.
   2801,   13.0975161,   49.3255119,           0.
   2802,   12.1956654,   49.2119141,           0.
   2803,   20.9372444,   49.2707901,           0.
   2804,   9.92889595,   49.7854805,           0.
   2805,   7.03335333,   49.9324951,           0.
   2806,   15.4244156,   49.9429626,           0.
   2807,   17.3994808,   49.7355957,           0.
   2808,    18.493412,    49.781044,           0.
   2809,   7.08951902,   48.9941025,           0.
   2810,   15.3169518,   48.8647919,           0.
   2811,   10.0757666,   48.8118477,           0.
   2812,   16.0863514,   49.2056389,           0.
   2813,    17.373354,   48.5961952,           0.
   2814,   3.55436039,    48.663105,           0.
   2815,   4.83661509,    49.673851,           0.
   2816,     13.36971,    49.588398,           0.
   2817,   16.6493587,   48.5140877,           0.
   2818,   19.9220963,   48.3787918,           0.
   2819,   11.4968567,   47.8604012,           0.
   2820,   13.9628258,   48.2073708,           0.
   2821,   4.97338295,   48.0069847,           0.
   2822,   18.2447128,   49.2252159,           0.
   2823,    9.3929472,   49.1239662,           0.
   2824,   15.5269604,   49.4009666,           0.
   2825,   19.3263817,   48.5818977,           0.
   2826,   10.5523634,   48.3241882,           0.
   2827,   21.5686798,   49.4286346,           0.
   2828,   18.7171326,   48.8231125,           0.
   2829,   6.65835428,   48.3360558,           0.
   2830,   15.4204254,   48.4451637,           0.
   2831,   10.1639109,   48.4402618,           0.
   2832,   4.48788071,   48.1344414,           0.
   2833,    22.543335,   49.3858032,           0.
   2834,   21.9726181,   49.1999702,           0.
   2835,   21.8194809,   49.8076515,           0.
   2836,   16.2626076,   48.1100731,           0.
   2837,   17.6718616,   49.0553093,           0.
   2838,    20.624733,   48.2657738,           0.
   2839,   11.9353437,   47.7974739,           0.
   2840,   14.3162365,   48.4731293,           0.
   2841,   13.3224154,   47.9164009,           0.
   2842,   5.55354691,    48.509922,           0.
   2843,   4.76479912,   47.7880898,           0.
   2844,   19.5627956,   47.9349747,           0.
   2845,   10.9814959,   47.9103317,           0.
   2846,   6.40767527,   48.1944046,           0.
   2847,   14.7590942,   48.4068642,           0.
   2848,   9.86273766,   48.1927185,           0.
   2849,   7.43336868,   48.4219017,           0.
   2850,   18.4295063,   47.9191704,           0.
   2851,   22.5385838,   48.5716896,           0.
   2852,   12.3104525,   49.7125816,           0.
   2853,   3.78131533,   49.7868805,           0.
   2854,   17.4614143,   48.0612564,           0.
   2855,   8.92284393,   49.8015251,           0.
   2856,   21.0139866,   48.6224976,           0.
   2857,    12.434103,   48.1548386,           0.
   2858,    5.3392086,    47.928215,           0.
   2859,   21.8218555,    48.703476,           0.
   2860,   5.93387651,   48.5371399,           0.
   2861,   14.6210833,     48.18153,           0.
   2862,   9.44905949,   48.3529434,           0.
   2863,   15.0196962,    48.040947,           0.
   2864,   6.91671467,   48.1875916,           0.
   2865,   8.04150581,   48.5917511,           0.
   2866,   17.9706478,   48.0194817,           0.
   2867,    10.256031,   47.9135437,           0.
   2868,   18.9414196,   48.2794876,           0.
   2869,   16.6101151,   47.7541122,           0.
   2870,   11.1785717,   46.9439697,           0.
   2871,   19.4808025,    47.631958,           0.
   2872,   9.08099556,   48.6081543,           0.
   2873,   8.84503174,   49.2851715,           0.
   2874,   5.74801826,   47.5929146,           0.
   2875,    14.230361,   47.4804115,           0.
   2876,   7.84430456,   48.1904564,           0.
   2877,   8.25062656,   48.9668846,           0.
   2878,   17.2573433,   47.5666161,           0.
   2879,   16.8815708,    47.337616,           0.
   2880,   14.4222355,   47.8692589,           0.
   2881,   6.02666998,   47.9986191,           0.
   2882,   19.2265759,   47.3349495,           0.
   2883,   10.7021503,   47.2152786,           0.
   2884,   19.8982296,   47.4493752,           0.
   2885,   11.8570623,   46.9892082,           0.
   2886,   9.25328445,   47.9220505,           0.
   2887,   15.8658199,   48.4635315,           0.
   2888,   15.6947327,    47.291317,           0.
   2889,   8.24978542,   47.9464912,           0.
   2890,   8.64126587,   47.7035713,           0.
   2891,   7.64490366,    47.763195,           0.
   2892,   9.05942535,   47.4769478,           0.
   2893,   5.47569799,   47.2308388,           0.
   2894,   13.6198635,    47.258213,           0.
   2895,   8.45927906,   48.3642693,           0.
   2896,   7.50705338,   49.4563446,           0.
   2897,   16.5099792,   47.0902405,           0.
   2898,   18.9537907,   47.6111679,           0.
   2899,   10.3538885,   47.3354836,           0.
   2900,   19.5935249,   47.0780983,           0.
   2901,   11.1461411,   46.4405899,           0.
   2902,   12.2785778,   47.2901039,           0.
   2903,   15.3030367,   47.4729424,           0.
   2904,   17.8822212,   47.4100952,           0.
   2905,   8.85650921,   48.1459045,           0.
   2906,   7.43401527,    47.342598,           0.
   2907,   9.46924114,   47.2568512,           0.
   2908,   5.84801149,   46.9031677,           0.
   2909,   14.0532112,   47.0567894,           0.
   2910,   13.1955624,   47.4398842,           0.
   2911,   7.06899405,   49.4652748,           0.
   2912,   7.92070055,   49.1168556,           0.
   2913,   12.2053366,   46.9215088,           0.
   2914,   17.5200558,   47.1556816,           0.
   2915,   10.5026646,   46.8533096,           0.
   2916,   18.8958645,   47.0518074,           0.
   2917,   15.5896559,   46.7656326,           0.
   2918,   15.1110716,   47.0268784,           0.
   2919,   15.2414875,   46.3938904,           0.
   2920,   12.6670647,    47.158596,           0.
   2921,   9.86039257,   47.0646553,           0.
   2922,   18.5807495,   47.4204788,           0.
   2923,   12.1263895,   46.6493073,           0.
   2924,   10.2379389,   46.5184402,           0.
   2925,   18.5248928,   46.7411461,           0.
   2926,   7.87973452,   47.0633698,           0.
   2927,    7.0404911,   47.6080284,           0.
   2928,   9.29883003,   46.8081932,           0.
   2929,   13.4701595,   46.8049889,           0.
   2930,   17.8121548,   46.7784081,           0.
   2931,     7.929492,   49.4758644,           0.
   2932,   13.0649147,   46.9933586,           0.
   2933,   13.3111506,   46.3626938,           0.
   2934,   15.8580418,   46.3218765,           0.
   2935,   10.0241175,   47.5172081,           0.
   2936,    18.207243,     47.69244,           0.
   2937,   11.5355043,   46.2330856,           0.
   2938,   10.6210699,   46.2598915,           0.
   2939,    18.892046,   46.4173927,           0.
   2940,   8.42346478,   46.8304329,           0.
   2941,   7.95547581,   49.9111137,           0.
   2942,   14.6771679,   47.2499504,           0.
   2943,    17.404562,   46.5003548,           0.
   2944,   18.1364155,   46.4226151,           0.
   2945,   7.16660786,   46.9526291,           0.
   2946,   6.50785542,   46.9159889,           0.
   2947,   6.87696028,   46.5859833,           0.
   2948,   13.7223415,   46.1639252,           0.
   2949,   16.2906551,   46.5078239,           0.
   2950,   15.4951487,   45.9765129,           0.
   2951,   11.2933626,   46.0103836,           0.
   2952,   12.0489635,   45.9371834,           0.
   2953,   18.5126152,   46.0840683,           0.
   2954,   17.7123165,   46.1023178,           0.
   2955,   7.23512697,    46.257534,           0.
   2956,   14.2952929,   46.4298134,           0.
   2957,   13.1308584,   45.9406357,           0.
   2958,    16.480135,   46.1226349,           0.
   2959,   15.0431862,   46.0902252,           0.
   2960,   10.0324478,   46.1145287,           0.
   2961,    16.965414,    46.263195,           0.
   2962,   10.9326801,    45.661747,           0.
   2963,   16.5514641,   45.7378922,           0.
   2964,   14.6837606,   46.2579994,           0.
   2965,   9.43062782,   46.1273727,           0.
   2966,   7.87181377,   46.2885513,           0.
   2967,    6.9346962,   45.8916435,           0.
   2968,   11.3618069,   45.6894608,           0.
   2969,   12.7460194,   46.1822739,           0.
   2970,   14.1317644,   45.9906006,           0.
   2971,   16.7340221,   46.6974182,           0.
   2972,   11.0269375,   45.1846275,           0.
   2973,   12.3374758,    46.387619,           0.
   2974,   14.4016714,   45.4167328,           0.
   2975,   9.08118725,   46.4016724,           0.
   2976,   10.9865923,   46.1006432,           0.
   2977,   6.57744312,   46.2283325,           0.
   2978,   7.57978678,   45.9192276,           0.
   2979,   16.5276051,   45.3686218,           0.
   2980,    10.520422,   45.0372658,           0.
   2981,   16.0993519,    45.373497,           0.
   2982,   11.6597099,   44.8963966,           0.
   2983,   8.21346855,   45.9393921,           0.
   2984,   7.92797518,   45.5743675,           0.
   2985,   13.8964663,   45.0486488,           0.
   2986,   17.0069332,   45.2505951,           0.
   2987,   10.0577192,   45.1073265,           0.
   2988,   15.7600889,   45.2259102,           0.
   2989,   12.1059389,   45.0357666,           0.
   2990,   11.2163486,   44.7501526,           0.
   2991,    8.8233614,   46.0038223,           0.
   2992,   9.15329838,   45.7279549,           0.
   2993,   7.63506222,   45.2077522,           0.
   2994,   13.3570175,   45.2358017,           0.
   2995,   14.3908854,   45.0270691,           0.
   2996,   10.0074339,   45.4916077,           0.
   2997,   5.96254969,   45.5215378,           0.
   2998,   15.6203566,   45.5353889,           0.
   2999,   10.2185431,   44.5774689,           0.
   3000,   16.5247135,   44.5094147,           0.
   3001,   9.75456333,   45.2286034,           0.
   3002,   10.4415455,   44.3258514,           0.
   3003,    7.9874177,   44.8660927,           0.
   3004,   14.7979298,   45.2169495,           0.
   3005,   17.1775799,   44.6194382,           0.
   3006,   16.2227478,   44.2084961,           0.
   3007,   15.4270353,    45.005249,           0.
   3008,   12.9862604,   44.9516182,           0.
   3009,   6.62719345,   45.5312843,           0.
   3010,   8.88915825,   45.3263931,           0.
   3011,   17.4612274,   45.0026512,           0.
   3012,   13.2234612,   44.5906296,           0.
   3013,   10.9892149,   44.1691704,           0.
   3014,   15.8859921,   43.9311256,           0.
   3015,    8.2733736,   45.2410202,           0.
   3016,   9.46443844,    45.463398,           0.
   3017,   16.8766193,   44.2607346,           0.
   3018,   16.5544605,   43.9298782,           0.
   3019,    17.574894,    44.346756,           0.
   3020,   13.8057747,    44.396183,           0.
   3021,   11.4023724,   44.3517761,           0.
   3022,   10.5912771,   43.9552231,           0.
   3023,   16.2138405,   43.6191368,           0.
   3024,   15.6108313,   44.2494736,           0.
   3025,   8.62056923,   44.9264793,           0.
   3026,   17.2480392,   43.9876366,           0.
   3027,   8.97688103,   44.6383018,           0.
   3028,   14.5066175,   44.4414215,           0.
   3029,   12.8953152,   43.4785767,           0.
   3030,   11.1551085,   43.8074875,           0.
   3031,   9.72929096,   44.2330627,           0.
   3032,   18.3070908,   44.4105568,           0.
   3033,   15.5312691,   43.6786308,           0.
   3034,   15.6776886,   44.7524033,           0.
   3035,       11.559,   43.9899178,           0.
   3036,    10.965024,    43.239769,           0.
   3037,   14.1192522,    44.034214,           0.
   3038,   12.7632236,   43.8769455,           0.
   3039,   15.2429495,   44.0866241,           0.
   3040,   18.2107582,   45.0638123,           0.
   3041,   17.2773323,   43.3496017,           0.
   3042,   12.4715118,   44.1956863,           0.
   3043,    14.835434,   43.8789139,           0.
   3044,   13.9888105,   43.3135757,           0.
   3045,   10.6019735,   42.9688416,           0.
   3046,   16.5649281,   43.3105049,           0.
   3047,   8.71441364,   44.2189445,           0.
   3048,   11.9874706,   44.1208763,           0.
   3049,   12.2743235,   44.6346588,           0.
   3050,   13.6308336,    42.654335,           0.
   3051,   11.2098427,   42.9242287,           0.
   3052,   10.3484821,   43.3514404,           0.
   3053,   14.4242783,   43.5881844,           0.
   3054,   12.1484356,   43.1301079,           0.
   3055,   12.5865574,   45.2037392,           0.
   3056,   12.9474125,   43.0104141,           0.
   3057,   14.2746143,   42.7611809,           0.
   3058,   12.0339184,   42.8012619,           0.
   3059,   10.2397823,   42.6788139,           0.
   3060,   9.93157196,   43.0971909,           0.
   3061,    11.507226,   43.1875916,           0.
   3062,   12.4928904,   43.0831947,           0.
   3063,   13.4244442,   42.2373161,           0.
   3064,   12.2775993,   45.5955467,           0.
   3065,   12.7353687,   42.6434898,           0.
   3066,   13.4143791,    41.866993,           0.
   3067,   12.3743057,   42.7108955,           0.
   3068,   12.4497538,   43.8115158,           0.
   3069,   13.9260883,   41.9120331,           0.
   3070,   13.6940289,   41.7010689,           0.
   3071,   14.1404696,    42.265419,           0.
   3072,    14.179739,   41.6275139,           0.
   3073,   13.0217695,   41.6311035,           0.
   3074,   12.2314377,    42.289917,           0.
   3075,   14.4966488,   41.9953423,           0.
   3076,   11.8502951,   42.4282684,           0.
   3077,    20.764822,   49.8764381,           0.
   3078,    14.740716,    43.120697,           0.
   3079,   14.5255022,   45.8444405,           0.
   3080,   6.12968016,   47.2546654,           0.
   3081,    15.503849,   42.3394127,           0.
   3082,   15.8568602,   42.6667023,           0.
   3083,   4.48767424,   47.5245476,           0.
   3084,   7.68698406,   44.4967308,           0.
   3085,   19.6446838,   46.4558296,           0.
   3086,   15.4940729,   43.0254974,           0.
   3087,   17.7492332,   45.3838081,           0.
   3088,   20.6452274,   47.5679626,           0.
   3089,   18.5554066,   45.4164886,           0.
   3090,   13.2973003,   41.4821243,           0.
   3091,   11.2298985,    42.309845,           0.
   3092,    12.619853,   41.8518143,           0.
   3093,   8.37539768,   49.4045105,           0.
   3094,   9.34868908,    44.394352,           0.
   3095,   12.9483194,   48.5141144,           0.
   3096,   11.6148872,   42.0220795,           0.
   3097,    12.376399,   41.2548752,           0.
   3098,   19.3405647,   45.4647141,           0.
   3099,   20.4037533,   46.5268097,           0.
   3100,   21.4514866,   47.6081581,           0.
   3101,   10.9167137,   41.9665413,           0.
   3102,   13.0393448,   41.1649971,           0.
   3103,   7.02239466,   44.4769669,           0.
   3104,   3.84618664,   47.5989799,           0.
   3105,   5.55279207,   46.5536652,           0.
   3106,   8.80804634,   43.4872322,           0.
   3107,   15.1221695,   42.7108803,           0.
   3108,   12.0906267,   41.7413826,           0.
   3109,    14.482089,   41.2941513,           0.
   3110,   13.3923702,   40.8850594,           0.
   3111,   12.7012224,   40.8695564,           0.
   3112,   11.2901764,   41.6401024,           0.
   3113,    12.001893,   40.9351578,           0.
   3114,   8.09910393,   43.4311447,           0.
   3115,   4.89274454,   46.5531616,           0.
   3116,   9.88197899,    42.357502,           0.
   3117,   15.1797829,   41.2958717,           0.
   3118,   9.17742252,   42.3766899,           0.
   3119,   12.3459167,   40.5553093,           0.
   3120,   9.54439545,   42.7553978,           0.
   3121,   11.9908247,   40.2192574,           0.
   3122,   10.2302341,   41.2820892,           0.
   3123,   13.0448999,   39.8567657,           0.
   3124,   10.5785742,   41.6248093,           0.
   3125,   11.2871847,   40.2295303,           0.
   3126,    13.053257,   39.1646614,           0.
   3127,   13.3949175,   40.2065735,           0.
   3128,   14.1063461,   40.2291031,           0.
   3129,   12.7032118,   38.8153534,           0.
   3130,   24.3961487,    50.247139,           0.
   3131,   23.4290924,   49.3272629,           0.
   3132,   12.3480997,   39.1657639,           0.
   3133,   23.2049427,   49.0859566,           0.
   3134,   23.8463173,   50.1309547,           0.
   3135,   2.01628947,   49.7904282,           0.
   3136,   12.6939688,   40.1996346,           0.
   3137,   22.3726063,   49.0694084,           0.
   3138,   22.3753223,   49.8553429,           0.
   3139,   3.99325991,   49.0357094,           0.
   3140,   4.49410295,   49.0536308,           0.
   3141,   9.11985588,   43.9199982,           0.
   3142,   5.36545849,   49.3698273,           0.
   3143,   6.17327166,   49.4717178,           0.
   3144,   12.5938234,   49.0962105,           0.
   3145,   12.9753857,   48.9711609,           0.
   3146,   13.9274321,   49.2945824,           0.
   3147,   14.6627741,   49.5269775,           0.
   3148,   15.0293055,   49.6004257,           0.
   3149,   20.2981777,    49.659893,           0.
   3150,   20.3298779,   49.1933365,           0.
   3151,   10.8959274,   42.6242523,           0.
   3152,   10.1634541,   43.7679329,           0.
   3153,    6.6478138,   49.0384865,           0.
   3154,   8.66924858,   48.8038673,           0.
   3155,    14.450819,   49.0159531,           0.
   3156,   15.1650362,    49.245163,           0.
   3157,   17.7237682,   48.3649902,           0.
   3158,   12.0994787,   48.7197914,           0.
   3159,   4.63774824,   48.6981392,           0.
   3160,   10.1077013,   44.2046051,           0.
   3161,   5.18720102,    48.428112,           0.
   3162,    16.558857,   48.9305573,           0.
   3163,   19.5473537,   49.0967216,           0.
   3164,   11.5919962,   48.3236198,           0.
   3165,   12.8733835,   48.0453949,           0.
   3166,    9.2189312,   45.0643806,           0.
   3167,   6.78275013,   47.2593613,           0.
   3168,   9.89138317,   44.6956787,           0.
   3169,   18.3616219,   48.2506294,           0.
   3170,   19.4663372,   48.2681694,           0.
   3171,   13.0470314,   42.2638474,           0.
   3172,   10.8866892,   48.5396385,           0.
   3173,   13.0245886,   41.9081726,           0.
   3174,   6.65717173,   48.6416893,           0.
   3175,   7.03741455,   48.5699387,           0.
   3176,   18.7179565,   47.8235359,           0.
   3177,   8.15766907,   46.6217384,           0.
   3178,   6.68683529,   47.8764267,           0.
   3179,   16.4248085,   45.0199966,           0.
   3180,   16.2103367,   44.7315254,           0.
   3181,   12.3569632,   47.7078934,           0.
   3182,   5.63124132,   48.1365166,           0.
   3183,   11.3222437,     43.47686,           0.
   3184,   13.6630239,   42.1000977,           0.
   3185,   15.0454903,   48.4089622,           0.
   3186,   8.03467751,   47.5373955,           0.
   3187,   8.88600445,   47.0490417,           0.
   3188,   16.1512032,   45.1237183,           0.
   3189,   15.9458323,   44.9574051,           0.
   3190,   11.7325716,   42.9464912,           0.
   3191,   15.9340172,   47.7283745,           0.
   3192,    16.270195,    47.449379,           0.
   3193,   8.72658825,   46.6484833,           0.
   3194,   11.8876686,   47.3765068,           0.
   3195,   15.4558659,   44.5454063,           0.
   3196,   11.8096657,   43.3764725,           0.
   3197,   11.8969698,   43.1559982,           0.
   3198,   13.0925732,   42.6307907,           0.
   3199,   16.0964108,   46.0480766,           0.
   3200,   11.0862808,    47.366272,           0.
   3201,   13.7295437,   43.7777367,           0.
   3202,     13.31563,    43.593998,           0.
   3203,   16.0148926,   47.2012596,           0.
   3204,    12.541646,    46.762886,           0.
   3205,   11.4877815,   45.2946548,           0.
   3206,   12.0732594,   43.7722702,           0.
   3207,    14.881669,   46.6377831,           0.
   3208,   11.5215816,   47.0005951,           0.
   3209,   10.2185793,   46.9607086,           0.
   3210,   12.1401758,     43.44133,           0.
   3211,   15.2635002,   45.3474426,           0.
   3212,   11.2952652,   46.6618538,           0.
   3213,   11.8623838,   46.6296463,           0.
   3214,   13.9884577,   45.5297394,           0.
   3215,   13.4709797,   44.1952362,           0.
   3216,    13.107338,   44.0238152,           0.
   3217,   11.7236414,   45.8114281,           0.
   3218,   15.1989555,   45.6674805,           0.
   3219,   11.9314547,   46.2916031,           0.
   3220,   13.5544939,    44.794487,           0.
   3221,   12.8722849,   44.4014282,           0.
   3222,   12.9089203,   45.5601501,           0.
   3223,   12.3091688,   46.0550652,           0.
   3224,   24.5574341,   2.01609659,           0.
   3225,   21.3116608,    5.5114069,           0.
   3226,   18.1855412,     8.820261,           0.
   3227,    14.753686,   11.7394114,           0.
   3228,   24.2422695,   12.6378708,           0.
   3229,   23.3423462,   12.7394772,           0.
   3230,   21.8671703,   12.6389008,           0.
   3231,   21.2251186,   12.8434925,           0.
   3232,   20.1128902,   12.8199234,           0.
   3233,   19.0112419,   12.6313171,           0.
   3234,   17.7894363,   12.5138941,           0.
   3235,   16.7678051,   12.5533485,           0.
   3236,   15.8397665,   12.8667183,           0.
   3237,   14.8902683,   12.9139175,           0.
   3238,   13.7880325,   13.0912504,           0.
   3239,   16.1134701,   11.5449877,           0.
   3240,   17.2714787,   11.7517595,           0.
   3241,   18.1063881,    11.817502,           0.
   3242,   20.0968876,   11.6394205,           0.
   3243,   21.0138206,   11.5957241,           0.
   3244,    21.930212,   11.6991501,           0.
   3245,   23.4596004,   11.9455013,           0.
   3246,   24.4778728,   11.2982311,           0.
   3247,   15.9471331,   10.8081341,           0.
   3248,   17.2025223,   10.5449715,           0.
   3249,   17.6515999,   10.6015863,           0.
   3250,   19.0095863,   10.4293728,           0.
   3251,   20.5448971,   10.7750673,           0.
   3252,   21.4161415,   10.6192045,           0.
   3253,   22.3929501,   10.0852757,           0.
   3254,    23.200428,   10.6266565,           0.
   3255,   24.5210857,   10.4029074,           0.
   3256,   16.7716904,   9.81652451,           0.
   3257,   17.8481178,   9.62466145,           0.
   3258,   19.2461147,   10.0869484,           0.
   3259,   20.0722179,   9.74548912,           0.
   3260,   21.2781868,   9.42766476,           0.
   3261,   22.2573242,   9.60817242,           0.
   3262,   23.3538303,   9.55933285,           0.
   3263,   24.4611588,   9.49487114,           0.
   3264,   18.8559589,   8.73984146,           0.
   3265,   20.1867256,   8.60008049,           0.
   3266,   21.0753326,   8.28736687,           0.
   3267,   23.3708515,   8.30484486,           0.
   3268,   24.3743992,   8.50267124,           0.
   3269,   18.9600449,   7.74984741,           0.
   3270,   20.2016716,   7.69535685,           0.
   3271,   21.1131325,      7.33076,           0.
   3272,   22.1277676,   7.42252207,           0.
   3273,   23.3300552,   7.34588861,           0.
   3274,   24.4101238,   7.49432039,           0.
   3275,   19.9820271,   6.54874086,           0.
   3276,   21.2959995,   6.49565744,           0.
   3277,   22.2612381,     6.556283,           0.
   3278,    23.470726,   6.56007576,           0.
   3279,   24.4449749,    6.5174675,           0.
   3280,     21.99716,   5.40710545,           0.
   3281,   23.3256931,    5.1348896,           0.
   3282,   24.4163685,   5.53907967,           0.
   3283,   22.1941948,   4.45498371,           0.
   3284,   23.1389828,   4.17380381,           0.
   3285,   24.3152084,   4.23690081,           0.
   3286,   23.3902969,   3.33583069,           0.
   3287,   24.6536942,   2.93471384,           0.
   3288,   24.4228249,   13.9610071,           0.
   3289,   23.4177246,   14.0048742,           0.
   3290,   22.3972359,   14.0374174,           0.
   3291,   21.2243347,   14.0975418,           0.
   3292,   20.1732388,   13.9271069,           0.
   3293,   19.0954342,   13.5782747,           0.
   3294,   18.0094891,    13.775403,           0.
   3295,   16.8490047,   13.5435829,           0.
   3296,    15.812067,   13.9534721,           0.
   3297,   14.8068972,   14.1829014,           0.
   3298,   24.4401169,   14.9029579,           0.
   3299,   23.4764214,   14.8800077,           0.
   3300,   22.3736687,    14.911294,           0.
   3301,     21.18857,   14.8291817,           0.
   3302,   20.0922337,   14.9515858,           0.
   3303,   19.3392029,   14.6931105,           0.
   3304,   18.0897617,   14.6342258,           0.
   3305,   16.8387852,   14.9022007,           0.
   3306,   16.1659126,   14.9002638,           0.
   3307,    24.401289,   15.8971949,           0.
   3308,   23.4766788,   15.7117844,           0.
   3309,   22.3623123,   16.2129478,           0.
   3310,   20.9567356,   15.8997726,           0.
   3311,     20.29006,   15.8957357,           0.
   3312,   19.1040688,    16.043232,           0.
   3313,    18.212677,   15.5569391,           0.
   3314,   17.2449608,   15.9054594,           0.
   3315,   24.3937664,   16.9178715,           0.
   3316,   23.2963104,   16.6196404,           0.
   3317,   22.1919594,   16.9163036,           0.
   3318,   21.5121822,   16.7469559,           0.
   3319,   20.3923607,   16.9393368,           0.
   3320,   19.0166645,   16.8603458,           0.
   3321,   17.9742546,   17.2867813,           0.
   3322,   24.4317684,   17.9067783,           0.
   3323,   23.3215828,   18.2381725,           0.
   3324,   22.2842293,   18.3069763,           0.
   3325,   21.5532074,    17.861908,           0.
   3326,   20.4699612,   18.0189648,           0.
   3327,   19.2726917,   17.8913155,           0.
   3328,   24.5339584,   18.8421364,           0.
   3329,   23.2249203,   19.1640377,           0.
   3330,   22.3026009,   18.9599361,           0.
   3331,   21.5005894,   19.5221195,           0.
   3332,   24.5340462,   19.7302647,           0.
   3333,   23.4826164,   20.3850861,           0.
   3334,   22.3430462,   20.5948219,           0.
   3335,   21.4483795,   20.1883545,           0.
   3336,   24.3041077,   21.0405941,           0.
   3337,   23.4259109,   21.5348492,           0.
   3338,   22.3819237,   21.2315521,           0.
   3339,   24.4943275,   22.4542236,           0.
   3340,   23.4742031,   22.2389374,           0.
   3341,   24.6585941,   23.4179325,           0.
   3342,   25.0135441,    2.9751091,           0.
   3343,   24.7962303,   3.98185706,           0.
   3344,   25.0171967,   1.99625015,           0.
   3345,   25.2151432,   1.02180302,           0.
   3346,   24.9228973,   5.51213741,           0.
   3347,   24.9249859,   6.49755478,           0.
   3348,   24.9115429,    7.4902091,           0.
   3349,   24.9039116,   8.48265076,           0.
   3350,   24.9441605,   9.46984196,           0.
   3351,   24.9714661,   10.4315529,           0.
   3352,   24.9420261,   11.3925438,           0.
   3353,   24.7501392,   12.4051552,           0.
   3354,   24.9179249,   13.9506054,           0.
   3355,   24.9238434,    14.926671,           0.
   3356,   24.9046326,    15.925478,           0.
   3357,   24.9062557,   16.9240932,           0.
   3358,   24.9360104,   17.9125481,           0.
   3359,   24.9755821,   18.8806515,           0.
   3360,   24.9678173,   19.8403988,           0.
   3361,   24.7814465,   20.8400497,           0.
   3362,   24.9565639,   22.4224892,           0.
   3363,   25.0107002,   23.4482059,           0.
   3364,   24.9813309,   24.1247311,           0.
   3365,   24.9926891,   22.9195385,           0.
   3366,   24.9241467,    21.923954,           0.
   3367,   24.8786182,   21.4133873,           0.
   3368,   24.9160347,   20.3199081,           0.
   3369,    24.981987,   19.3628311,           0.
   3370,   24.9571171,    18.394289,           0.
   3371,   24.9197731,   17.4220295,           0.
   3372,   24.8984108,   16.4258099,           0.
   3373,   24.9166317,   15.4228544,           0.
   3374,   24.9248734,   14.4368315,           0.
   3375,   24.8986778,   13.4626608,           0.
   3376,    24.854496,   12.9649696,           0.
   3377,   24.8847923,   11.8751888,           0.
   3378,   24.9652557,   10.9137592,           0.
   3379,   24.9618607,   9.95166206,           0.
   3380,   24.9211292,   8.97889328,           0.
   3381,   24.9028492,   7.98652554,           0.
   3382,   24.9214554,   6.99477434,           0.
   3383,   24.9240341,   6.00092411,           0.
   3384,    24.922905,   5.02589846,           0.
   3385,   24.8951778,   4.52848911,           0.
   3386,   24.9415169,   3.45663095,           0.
   3387,   25.0258121,   2.49056077,           0.
   3388,   25.0366554,    1.4311254,           0.
   3389,   15.4965773,   14.8744373,           0.
   3390,   14.4680243,   13.8270998,           0.
   3391,    22.669323,   3.59498835,           0.
   3392,   25.1248493,  0.714833498,           0.
   3393,   18.6610794,    17.965723,           0.
   3394,   20.7953243,   20.1431599,           0.
   3395,   22.4928207,   21.8974438,           0.
   3396,   21.7893314,   21.2068672,           0.
   3397,   23.9042416,   23.3103561,           0.
   3398,   17.4094658,   8.96514988,           0.
   3399,   18.0200615,   8.12041187,           0.
   3400,   20.5769176,   5.62690067,           0.
   3401,   21.2069931,   4.87450457,           0.
   3402,    24.125679,   2.31106782,           0.
   3403,   24.5271435,   1.32577407,           0.
   3404,    25.227932,   24.6273842,           0.
   3405,   24.5712337,   23.9147778,           0.
   3406,   23.5915127,   22.9307709,           0.
   3407,   22.8572941,   22.2417812,           0.
   3408,   21.4558086,   20.8575191,           0.
   3409,   19.8254795,    19.018013,           0.
   3410,   17.2744617,   16.5972137,           0.
   3411,   16.1770477,   9.82585239,           0.
   3412,   23.2572231,   2.74003029,           0.
   3413,   20.2801418,   6.04336405,           0.
   3414,   15.8554764,   10.1700134,           0.
   3415,   18.3321342,   7.75678158,           0.
   3416,   16.2066746,   15.5599346,           0.
   3417,   13.8222504,   12.3926172,           0.
   3418,   16.8999786,   9.21161842,           0.
   3419,   14.2416229,   12.0717363,           0.
   3420,   14.9496832,   11.2442379,           0.
   3421,   15.2370739,    10.866601,           0.
   3422,   16.5623684,   15.9043188,           0.
   3423,   15.1490107,   14.5316954,           0.
   3424,   14.1293964,   13.4615517,           0.
   3425,   19.4493427,   6.81559706,           0.
   3426,   19.0317116,   7.09673786,           0.
   3427,   21.5278778,   4.51825476,           0.
   3428,   22.1884441,    3.8534112,           0.
   3429,   17.6276264,   16.9438229,           0.
   3430,   19.5020409,   18.5709896,           0.
   3431,   20.4676228,   19.7797909,           0.
   3432,   18.3167286,   17.6281891,           0.
   3433,   24.5259914,   3.32082701,           0.
   3434,   24.4045467,   11.7121477,           0.
   3435,   24.4683399,   20.1329288,           0.
   3436,   24.4548111,   21.9533215,           0.
   3437,    24.396328,   13.4996834,           0.
   3438,   24.4490509,   5.07161903,           0.
   3439,   24.2026978,   23.6585331,           0.
   3440,   23.8060532,   2.60541177,           0.
   3441,   20.0421753,   18.3088093,           0.
   3442,   22.7407303,   21.5657425,           0.
   3443,   21.7561588,   20.5454693,           0.
   3444,   20.8116722,   6.30002832,           0.
   3445,   16.2175369,    10.454711,           0.
   3446,    18.422678,   8.44282722,           0.
   3447,   19.6773186,   7.29359865,           0.
   3448,   15.4801588,   14.2425098,           0.
   3449,   14.5037899,   13.1761694,           0.
   3450,   21.6046734,   5.14812279,           0.
   3451,   14.1745691,   12.7874508,           0.
   3452,   15.3847246,   11.3852129,           0.
   3453,    17.456646,   9.49333954,           0.
   3454,     18.64995,   17.2484207,           0.
   3455,   20.8380375,   19.4613438,           0.
   3456,   17.6066666,   16.2473698,           0.
   3457,   24.2336693,   1.69104993,           0.
   3458,   24.5505257,   19.2969074,           0.
   3459,   24.5927277,   22.9414234,           0.
   3460,   24.6495838,   2.50822353,           0.
   3461,   24.4350395,   6.02456617,           0.
   3462,    24.436676,   14.4295158,           0.
   3463,   24.5131149,   10.8612576,           0.
   3464,    24.007637,   21.9678097,           0.
   3465,   24.0129166,   5.05593204,           0.
   3466,   24.1837425,   3.12629271,           0.
   3467,   23.8935337,   13.5396595,           0.
   3468,   23.8743706,   11.9036484,           0.
   3469,   23.9664669,   20.2568169,           0.
   3470,   24.1081448,   19.6275349,           0.
   3471,   23.9693203,   6.06875944,           0.
   3472,   23.9439926,   14.4308805,           0.
   3473,   24.0063744,   11.2089357,           0.
   3474,   24.2848053,   2.62614226,           0.
   3475,   24.2092819,   23.0401993,           0.
   3476,   23.9602242,   22.5336246,           0.
   3477,    23.822876,   5.53363943,           0.
   3478,   23.9224796,   13.9836893,           0.
   3479,   23.4796276,   11.5265331,           0.
   3480,   23.6336613,   20.1355038,           0.
   3481,    23.670063,   19.2037506,           0.
   3482,    23.979681,   6.53956842,           0.
   3483,   23.9627609,   14.8840256,           0.
   3484,   23.6134739,   10.7524052,           0.
   3485,    23.567709,   4.51548052,           0.
   3486,    23.396307,   13.5726719,           0.
   3487,   23.7791595,   12.1369371,           0.
   3488,     23.85116,   20.5003948,           0.
   3489,   24.0991344,   18.8333015,           0.
   3490,   23.1829739,   19.6149044,           0.
   3491,   23.3829803,   5.87242508,           0.
   3492,   23.9802265,   7.00261068,           0.
   3493,    23.439455,   14.4493036,           0.
   3494,   23.9656982,   15.3444529,           0.
   3495,   24.0698681,   10.3936281,           0.
   3496,   23.5402012,   11.1367311,           0.
   3497,   23.2215672,     22.58778,           0.
   3498,   23.6429672,   21.9340076,           0.
   3499,   22.9183807,   14.4800978,           0.
   3500,   22.7510738,   5.93574429,           0.
   3501,   23.5161743,   20.7370434,           0.
   3502,   22.8645344,   12.2979431,           0.
   3503,   22.9056301,   13.5962381,           0.
   3504,   23.1708546,   4.62310362,           0.
   3505,   24.0281067,   4.70479059,           0.
   3506,   23.8490925,   13.1199007,           0.
   3507,   24.0420055,   12.3032284,           0.
   3508,   24.1090336,   20.6856041,           0.
   3509,   24.4942112,   9.95342159,           0.
   3510,   24.4875832,    18.370657,           0.
   3511,   24.4398651,   7.00639868,           0.
   3512,   24.4317837,   15.3904276,           0.
   3513,   23.6849003,   18.4907837,           0.
   3514,   23.6061649,   6.96839905,           0.
   3515,   23.5271759,   15.2941837,           0.
   3516,   23.9349384,   21.5135098,           0.
   3517,   23.1199265,   21.8981361,           0.
   3518,   23.6367111,   2.97870374,           0.
   3519,   23.7185097,   3.92275667,           0.
   3520,   24.2721329,   12.0643263,           0.
   3521,   24.3326149,   20.4667091,           0.
   3522,   23.1346436,   20.4644413,           0.
   3523,   22.4069309,   11.8073645,           0.
   3524,   22.9112339,   14.0324736,           0.
   3525,   22.6482677,   5.34323883,           0.
   3526,   23.9038773,   7.46685314,           0.
   3527,   23.9185162,    15.837389,           0.
   3528,   22.9333553,   14.9743118,           0.
   3529,   22.8207874,   6.52893162,           0.
   3530,   22.9677811,   3.12415457,           0.
   3531,   24.1365376,   3.93295598,           0.
   3532,   22.8632984,   18.7066154,           0.
   3533,    23.106411,   6.87042189,           0.
   3534,   23.1759815,   15.2907305,           0.
   3535,   22.8491802,   10.1217556,           0.
   3536,   24.3285275,   3.65916538,           0.
   3537,   23.3515148,   20.0982494,           0.
   3538,   22.6265087,   20.9330273,           0.
   3539,   22.9926224,   11.4594917,           0.
   3540,   22.2810802,   12.2920008,           0.
   3541,   22.4164543,   13.6111298,           0.
   3542,   22.6585598,   4.67289209,           0.
   3543,   23.2289658,   3.74343467,           0.
   3544,   22.3945866,    14.477396,           0.
   3545,    22.490181,   6.25273418,           0.
   3546,   22.7880249,   19.0787354,           0.
   3547,    22.732954,   10.5403776,           0.
   3548,   22.8272667,   9.73080444,           0.
   3549,   22.5829468,   15.7970381,           0.
   3550,   22.7013016,   7.41097736,           0.
   3551,   22.8338203,   18.3552666,           0.
   3552,   24.3440151,   13.0526114,           0.
   3553,   24.4016895,   21.4748516,           0.
   3554,   22.9642029,   21.2458324,           0.
   3555,   24.3702679,   16.4093342,           0.
   3556,   24.3835316,   7.99159479,           0.
   3557,   22.9629612,   20.0879993,           0.
   3558,   22.8782578,   12.7315159,           0.
   3559,   22.4968452,   11.3697348,           0.
   3560,   22.7195072,   4.15128613,           0.
   3561,   22.7184372,   19.4863873,           0.
   3562,   23.0803909,   11.0502539,           0.
   3563,   22.4819069,   9.81547451,           0.
   3564,   22.6918335,   8.78751564,           0.
   3565,   22.8379498,   16.2654762,           0.
   3566,   22.5491085,   18.5817413,           0.
   3567,   23.0382385,   17.6883965,           0.
   3568,   22.3220863,   15.3271999,           0.
   3569,   22.3680286,   7.08718967,           0.
   3570,   21.8952122,   14.4910355,           0.
   3571,   22.1211777,   6.00054502,           0.
   3572,   23.3491192,   16.0743237,           0.
   3573,   23.8596306,   7.96304178,           0.
   3574,   23.7836933,   16.3882008,           0.
   3575,   21.9893646,   11.2688684,           0.
   3576,   22.4904442,   19.9478817,           0.
   3577,   22.8960476,   13.1693954,           0.
   3578,   22.6082382,   9.37623882,           0.
   3579,   23.3290291,   8.84802341,           0.
   3580,   23.3268337,   17.1016598,           0.
   3581,   22.5877857,   17.9984875,           0.
   3582,   22.3804779,   19.3570042,           0.
   3583,   22.6014595,   10.9531412,           0.
   3584,   21.8942947,   6.33279991,           0.
   3585,   21.9067535,   14.9359941,           0.
   3586,   21.7245502,   5.75910139,           0.
   3587,   21.8605385,   14.0503788,           0.
   3588,   22.5312595,    16.681448,           0.
   3589,   22.5432091,   17.3107433,           0.
   3590,    22.714201,   8.01767349,           0.
   3591,   22.4030342,   8.47342873,           0.
   3592,   22.1104717,   17.6681976,           0.
   3593,   22.1126156,   7.90122175,           0.
   3594,   21.9242039,   16.4750824,           0.
   3595,   22.3266888,   9.04976177,           0.
   3596,   21.4606419,   11.7456932,           0.
   3597,   22.0870495,   20.2450333,           0.
   3598,   23.9465504,   9.54373169,           0.
   3599,    23.032032,   8.49858475,           0.
   3600,   23.8317337,   17.9370174,           0.
   3601,   22.8198471,   16.9557343,           0.
   3602,     22.07827,   6.85057449,           0.
   3603,   21.4850922,   6.12086248,           0.
   3604,   21.4656925,   14.5705538,           0.
   3605,   22.0115223,   13.1726866,           0.
   3606,   23.3294067,     7.896348,           0.
   3607,   23.1752052,   16.3164368,           0.
   3608,   22.0415459,   18.0765133,           0.
   3609,   21.5906448,   7.42292118,           0.
   3610,   22.0321655,   15.8114319,           0.
   3611,    21.949789,   9.32017136,           0.
   3612,   21.8037834,   12.0495729,           0.
   3613,   21.5124931,   11.2231045,           0.
   3614,   21.7910023,   19.8870716,           0.
   3615,   24.0205345,    18.392374,           0.
   3616,   23.9924927,   9.98439217,           0.
   3617,   23.5396042,   9.14997482,           0.
   3618,   23.5835075,    17.399416,           0.
   3619,   21.4069328,   13.5119648,           0.
   3620,   21.6087456,   13.0437336,           0.
   3621,   20.9620819,   13.3240023,           0.
   3622,    21.796814,   17.1937447,           0.
   3623,   21.5806923,   7.86074257,           0.
   3624,    21.559639,   8.92550945,           0.
   3625,   22.0159531,   9.90941048,           0.
   3626,   20.6332664,   13.8816376,           0.
   3627,   22.0256939,   8.34724617,           0.
   3628,   21.5128689,   12.4222431,           0.
   3629,   20.2995243,   13.4525595,           0.
   3630,     20.88867,   14.5858498,           0.
   3631,   21.1380062,   12.1970005,           0.
   3632,   20.8241062,   12.6051502,           0.
   3633,   20.5534878,    13.054903,           0.
   3634,   20.7809048,   11.9770861,           0.
   3635,    20.671093,   11.4005852,           0.
   3636,   20.3777542,   12.2956657,           0.
   3637,   21.5020866,   14.9644346,           0.
   3638,   21.7151432,   6.66929007,           0.
   3639,   20.4306049,   14.5150471,           0.
   3640,   21.6687908,   9.67690945,           0.
   3641,   21.3916798,   15.4993515,           0.
   3642,   21.6012363,   7.02829838,           0.
   3643,   21.7186584,   18.2454853,           0.
   3644,   23.9312134,   9.07057571,           0.
   3645,   23.9393444,   17.4047089,           0.
   3646,   19.7878361,   12.1182604,           0.
   3647,   24.4290943,   4.63010645,           0.
   3648,   21.8699551,   19.2340183,           0.
   3649,   22.0762177,   10.8293571,           0.
   3650,   22.0601616,   20.8938293,           0.
   3651,   21.9103298,   4.79514313,           0.
   3652,   21.1571846,   11.2665625,           0.
   3653,   21.2357292,   16.3111801,           0.
   3654,   21.0962143,   7.79417515,           0.
   3655,   20.3147182,   11.2026587,           0.
   3656,   20.0105648,   13.6463633,           0.
   3657,   24.4192295,   17.4164104,           0.
   3658,   24.4193687,    9.0087719,           0.
   3659,   22.3713512,   4.15146446,           0.
   3660,    23.878521,   16.9405231,           0.
   3661,   23.7865105,   8.53030396,           0.
   3662,    21.009161,   8.78587914,           0.
   3663,   21.3407307,   17.4559879,           0.
   3664,   20.6680069,   14.9198475,           0.
   3665,   21.6021881,   18.8718185,           0.
   3666,    21.807478,    10.257184,           0.
   3667,   21.1673431,   6.89663887,           0.
   3668,   20.9770565,   15.2086239,           0.
   3669,   21.3425007,   18.5010319,           0.
   3670,   20.9901485,   9.82535648,           0.
   3671,   19.8950958,   14.2785091,           0.
   3672,   21.9370461,   7.08963537,           0.
   3673,    22.312439,   15.6498642,           0.
   3674,   21.8437023,   4.17374754,           0.
   3675,   20.6529713,    17.333374,           0.
   3676,   20.6278667,   8.19798756,           0.
   3677,   19.9050961,   13.2839422,           0.
   3678,   20.8955803,    17.732563,           0.
   3679,   20.6328487,   7.72034645,           0.
   3680,    20.548254,   16.2440414,           0.
   3681,   20.8052731,   9.28067589,           0.
   3682,   19.5288334,   13.4717455,           0.
   3683,   19.2889156,   11.7140951,           0.
   3684,   22.1340752,   21.5548649,           0.
   3685,    20.653368,   6.73477983,           0.
   3686,   19.3776875,   11.3033943,           0.
   3687,   20.5757561,   8.63127327,           0.
   3688,   19.5033932,   13.1290236,           0.
   3689,   20.8168392,   16.6279945,           0.
   3690,   19.2334061,    12.123662,           0.
   3691,   20.7582092,   10.2990541,           0.
   3692,   20.9475861,   18.7841091,           0.
   3693,   20.6202202,   7.22760153,           0.
   3694,    20.662159,    15.563345,           0.
   3695,   19.2578049,   13.9539843,           0.
   3696,   20.3106022,   9.97032261,           0.
   3697,     20.69981,   18.4037247,           0.
   3698,   20.3759651,   15.2477798,           0.
   3699,   20.2423611,   17.6290073,           0.
   3700,   20.2381001,   8.14649582,           0.
   3701,   19.9131088,   11.0072203,           0.
   3702,   18.6069355,   11.1171408,           0.
   3703,   20.2471027,   10.2416363,           0.
   3704,   18.8677483,   14.1357603,           0.
   3705,   20.0535088,   15.5704803,           0.
   3706,   19.6118336,    12.675683,           0.
   3707,   19.8931961,   8.12749863,           0.
   3708,   19.9862289,   17.2465229,           0.
   3709,    19.388237,   14.3169031,           0.
   3710,   18.8384438,   12.0034952,           0.
   3711,   20.0981464,   10.6049671,           0.
   3712,   20.1262836,   16.5636082,           0.
   3713,   20.4103107,   8.94398308,           0.
   3714,   21.1412945,   19.8282204,           0.
   3715,   21.0404816,   5.89493179,           0.
   3716,   20.1133175,   7.18729401,           0.
   3717,   19.0232506,    13.147131,           0.
   3718,   19.8537579,   10.0337048,           0.
   3719,   18.5299129,   11.5164967,           0.
   3720,   18.5694084,   13.7696056,           0.
   3721,   20.8862247,   5.24367619,           0.
   3722,    19.551981,   8.20505238,           0.
   3723,   19.8622952,   17.9101639,           0.
   3724,   19.7114487,   16.8774757,           0.
   3725,   20.0908852,     9.186306,           0.
   3726,   19.8685303,   16.1978817,           0.
   3727,   18.4147949,   12.8067417,           0.
   3728,   19.8217983,   7.73841619,           0.
   3729,   19.5845356,   15.1383867,           0.
   3730,   21.1256943,   20.5032253,           0.
   3731,   19.6583748,   15.8358612,           0.
   3732,   19.6096592,   17.5541744,           0.
   3733,   19.4844685,   7.84475327,           0.
   3734,   19.6529369,   10.3849573,           0.
   3735,   18.1157722,   10.9525976,           0.
   3736,   18.5653381,    14.497344,           0.
   3737,   19.2381687,   8.03926277,           0.
   3738,   19.3246899,    17.214941,           0.
   3739,   18.4943714,   13.2582655,           0.
   3740,   18.0410404,   12.1055365,           0.
   3741,   19.2433319,   15.0776567,           0.
   3742,   19.2888412,   7.48527527,           0.
   3743,   18.2883224,   12.3599834,           0.
   3744,   19.4205742,    16.495966,           0.
   3745,   18.9704151,   17.5839138,           0.
   3746,   18.6114979,   10.1427088,           0.
   3747,    19.540741,    18.112236,           0.
   3748,   18.3634434,   10.5217657,           0.
   3749,   18.4457264,   15.2446375,           0.
   3750,   18.6877308,   16.5129414,           0.
   3751,   17.7551365,   11.4463959,           0.
   3752,   19.3755722,   9.01070023,           0.
   3753,   17.9548435,   13.3392439,           0.
   3754,   18.6655655,   7.41152525,           0.
   3755,   18.3189278,   16.9129753,           0.
   3756,   18.6469803,   9.11280823,           0.
   3757,   19.4176235,   10.8021555,           0.
   3758,   19.4843216,   9.73804855,           0.
   3759,   17.7045269,   12.1481447,           0.
   3760,   18.6763687,    8.0810318,           0.
   3761,   18.0175667,   14.2168169,           0.
   3762,   19.0235634,   18.2883587,           0.
   3763,   18.6053181,   15.8127193,           0.
   3764,   17.7101192,   11.7884426,           0.
   3765,   17.4182358,   13.4193172,           0.
   3766,   17.5815201,   14.8010998,           0.
   3767,   19.0919762,   9.40832996,           0.
   3768,   18.8865395,   15.0068588,           0.
   3769,   17.2848186,   12.5536413,           0.
   3770,   17.4555416,   11.0026436,           0.
   3771,   17.9837875,   10.2450686,           0.
   3772,    20.271616,    18.701107,           0.
   3773,   18.2255821,   9.86604595,           0.
   3774,     18.22015,   14.9993172,           0.
   3775,   18.5473137,   14.9282007,           0.
   3776,    18.309185,   16.2075195,           0.
   3777,   17.6787739,   9.97679138,           0.
   3778,   18.4339504,   9.48739052,           0.
   3779,   17.5301132,   13.8434896,           0.
   3780,   17.3400383,   12.9821453,           0.
   3781,   17.8850136,   15.2322149,           0.
   3782,   17.2508068,   12.1406116,           0.
   3783,   17.3331394,   11.3809538,           0.
   3784,   20.1445427,   19.4080887,           0.
   3785,   20.5452156,   19.0863686,           0.
   3786,   18.8473549,   9.77780151,           0.
   3787,   17.3853664,   10.2254868,           0.
   3788,   16.8045406,   13.0185728,           0.
   3789,     17.45541,   9.80152321,           0.
   3790,   16.8771095,   11.2754202,           0.
   3791,   17.5651054,   15.5560589,           0.
   3792,   17.2775555,   14.2838049,           0.
   3793,   16.7384109,   12.0989132,           0.
   3794,   16.4014549,   13.4103994,           0.
   3795,   16.7751389,   14.2609024,           0.
   3796,   16.7576885,    11.672802,           0.
   3797,   16.6144104,   10.7083197,           0.
   3798,   16.2470455,   12.5357752,           0.
   3799,   17.2403526,    9.9106884,           0.
   3800,   17.2176952,   15.2118187,           0.
   3801,   17.9841499,   9.21273994,           0.
   3802,   16.4726791,    13.946537,           0.
   3803,   17.7178993,   8.50957775,           0.
   3804,   16.5270786,   15.2349348,           0.
   3805,   16.3832626,   11.0902424,           0.
   3806,   16.1824741,   12.0647831,           0.
   3807,   16.4883938,   10.1141338,           0.
   3808,   17.0835648,   9.59475422,           0.
   3809,   16.2453995,    13.030859,           0.
   3810,   15.8491802,   15.2176113,           0.
   3811,   16.5159264,   9.49941826,           0.
   3812,   16.1398296,   14.2664766,           0.
   3813,   16.8876114,   15.5668154,           0.
   3814,   15.6148024,   12.1287127,           0.
   3815,   15.4718847,   11.7164211,           0.
   3816,   15.8180027,   14.5740604,           0.
   3817,   15.2945309,   12.6900425,           0.
   3818,   15.5453024,   13.0616055,           0.
   3819,   16.9174881,   16.2497444,           0.
   3820,   15.1504135,   13.9041586,           0.
   3821,   15.0477886,   12.2643881,           0.
   3822,   15.1894932,   13.2938738,           0.
   3823,   15.5425997,   10.5187712,           0.
   3824,   24.8368587,   1.01428866,           0.
   3825,   23.8899326,   2.03032708,           0.
   3826,   13.4358091,   12.7205753,           0.
   3827,   23.5496655,   2.37632656,           0.
   3828,   24.7170372,   1.56240177,           0.
   3829,   24.3687458,   23.3858299,           0.
   3830,   14.5857878,   12.5034113,           0.
   3831,   23.9871025,   2.83743334,           0.
   3832,   14.8263226,   13.5517406,           0.
   3833,   17.9692669,   16.5828876,           0.
   3834,   24.3813305,   2.89342046,           0.
   3835,   15.4967194,    13.633153,           0.
   3836,   23.8878708,   21.1158524,           0.
   3837,   23.8318348,   20.7662544,           0.
   3838,   17.9257221,   15.8945847,           0.
   3839,    16.474617,   14.5825138,           0.
   3840,   15.6737309,   11.1356497,           0.
   3841,   24.0615063,   19.9681797,           0.
   3842,   24.1173878,   19.2441902,           0.
   3843,   23.7877407,   12.7325487,           0.
   3844,   23.7262955,   12.3875284,           0.
   3845,   23.9368744,   11.5834198,           0.
   3846,   24.0576305,   10.8139639,           0.
   3847,   23.9122086,   4.35595036,           0.
   3848,   23.8629932,   3.42295122,           0.
   3849,   23.4693775,   4.20637608,           0.
   3850,   15.7583084,   12.5430613,           0.
   3851,   23.7146416,   4.84934855,           0.
   3852,   15.8474417,   13.3622808,           0.
   3853,   16.1360226,   13.6696758,           0.
   3854,   19.0367355,   8.36301708,           0.
   3855,   22.2926044,   5.05678129,           0.
   3856,   23.4953194,   21.0957642,           0.
   3857,    21.219593,   19.1591949,           0.
   3858,   17.1103115,   14.5699139,           0.
   3859,   23.6122608,   6.15432739,           0.
   3860,   23.0377579,   5.58189011,           0.
   3861,   23.6979885,   10.4313097,           0.
   3862,   23.6881676,    19.867672,           0.
   3863,   23.6752338,   19.5641651,           0.
   3864,   23.6710701,   18.8223228,           0.
   3865,   23.4834671,   17.6671085,           0.
   3866,   17.0338459,   10.0821047,           0.
   3867,   16.8311672,   10.3656874,           0.
   3868,    23.366993,    13.154603,           0.
   3869,   23.3446121,    12.345561,           0.
   3870,   21.1185455,   18.1221962,           0.
   3871,   21.5520153,   8.34871578,           0.
   3872,   23.1342144,   20.9384975,           0.
   3873,   23.2643414,   20.7209454,           0.
   3874,   17.0426846,   10.8886642,           0.
   3875,   17.1035137,   13.9769888,           0.
   3876,    19.401701,   8.54122448,           0.
   3877,   19.8281727,   8.84518528,           0.
   3878,   23.0960255,   6.22892237,           0.
   3879,   22.9865417,   9.13697243,           0.
   3880,   17.6077843,   14.2815828,           0.
   3881,   22.8743725,   16.6250801,           0.
   3882,   22.9449177,   15.9220495,           0.
   3883,   23.0676823,   15.5825262,           0.
   3884,   22.9229832,   11.8797035,           0.
   3885,   23.4009838,   19.8670921,           0.
   3886,   23.2635098,   18.7426453,           0.
   3887,   19.9151211,   8.41915798,           0.
   3888,   19.6880684,   8.52091312,           0.
   3889,   19.7539558,   9.42978477,           0.
   3890,   22.3780575,   5.67147017,           0.
   3891,   22.8661079,   5.05751705,           0.
   3892,   22.0786228,   8.71869373,           0.
   3893,   21.9712887,   18.6033535,           0.
   3894,   22.8737602,    20.668457,           0.
   3895,    21.085659,   17.0377541,           0.
   3896,   22.1236076,   19.6041203,           0.
   3897,    22.652956,    20.351265,           0.
   3898,    18.782547,   15.3973036,           0.
   3899,   19.1625233,   15.5010204,           0.
   3900,   23.4186115,   10.1277485,           0.
   3901,   22.5647087,   6.80208302,           0.
   3902,   22.7219257,    15.417428,           0.
   3903,   20.3974609,   9.51665783,           0.
   3904,   17.8750057,   12.9125118,           0.
   3905,   22.4428539,   13.1899757,           0.
   3906,   22.4298077,   12.7595272,           0.
   3907,   19.5446663,   15.4719715,           0.
   3908,   22.8004169,   7.02266264,           0.
   3909,   17.7725201,   11.1382895,           0.
   3910,   18.7632732,   10.7449522,           0.
   3911,   21.6480522,   16.0245037,           0.
   3912,   18.3775806,   14.1708212,           0.
   3913,   18.1377888,   11.4420328,           0.
   3914,   22.0967197,   12.8507166,           0.
   3915,   21.9141159,   13.5993252,           0.
   3916,   21.4563465,   10.0710773,           0.
   3917,    18.446558,    11.912364,           0.
   3918,   20.6016846,   9.88145828,           0.
   3919,   19.0644913,   10.9374208,           0.
   3920,   18.9197903,   11.6226091,           0.
   3921,   22.2486286,   10.4421625,           0.
   3922,   18.9626865,   14.6411381,           0.
   3923,   19.7414169,   14.7624493,           0.
   3924,   18.7235737,   12.3296356,           0.
   3925,   19.7606411,   11.4271488,           0.
   3926,   19.0019798,   11.2469959,           0.
   3927,     19.83535,   15.2877541,           0.
   3928,   21.9047985,   15.3884592,           0.
   3929,   19.0641422,   14.3643284,           0.
   3930,    20.940506,   11.0058365,           0.
   3931,   19.6041851,   11.7526007,           0.
   3932,   20.4623394,   11.8074102,           0.
   3933,   19.6657944,   13.8292322,           0.
   3934,   10.2490015,   13.7451038,           0.
   3935,   7.08440018,   16.8758545,           0.
   3936,    4.0156908,   19.9815922,           0.
   3937,  0.869691253,   23.3802528,           0.
   3938,  0.744844854,   1.98903501,           0.
   3939,   1.88887334,   3.19026113,           0.
   3940,  0.884312212,   2.95205522,           0.
   3941,   2.93275285,   4.14997911,           0.
   3942,   2.21722436,   4.15387487,           0.
   3943,   1.16919005,    4.1083703,           0.
   3944,   3.94444466,   5.20466852,           0.
   3945,   3.29419184,   5.13279676,           0.
   3946,   1.90881336,    5.0270648,           0.
   3947,  0.913201451,    5.6532259,           0.
   3948,   4.96112537,   6.28299236,           0.
   3949,   4.28469372,   6.23260641,           0.
   3950,   3.30626702,   6.45118904,           0.
   3951,   2.10620308,    6.4034133,           0.
   3952,  0.866712451,    6.5640254,           0.
   3953,   5.98842382,   7.33872414,           0.
   3954,   5.28782749,   7.30137634,           0.
   3955,   4.22829151,   7.57002974,           0.
   3956,   2.93898964,   7.29155445,           0.
   3957,   1.97433507,   7.51388359,           0.
   3958,  0.904835045,   7.46572256,           0.
   3959,   7.01476336,   8.42036343,           0.
   3960,    6.3058176,   8.34584427,           0.
   3961,   5.26447344,   8.57516956,           0.
   3962,   4.59457636,   8.58723545,           0.
   3963,    3.3737092,   8.18819809,           0.
   3964,   0.97414875,   8.41840267,           0.
   3965,   7.21506882,   9.61436939,           0.
   3966,   6.03525305,   9.54484749,           0.
   3967,   5.15547609,   9.70802116,           0.
   3968,     4.185812,   9.43406105,           0.
   3969,   3.13930678,   9.47087288,           0.
   3970,   2.26567841,   9.68024826,           0.
   3971,   1.09512711,    9.4279213,           0.
   3972,   9.54230022,   10.9356623,           0.
   3973,   8.51427078,   10.5653305,           0.
   3974,    7.2378273,   10.7584848,           0.
   3975,   6.25158691,   10.7955523,           0.
   3976,   5.25056124,   10.3570652,           0.
   3977,   3.86074138,   10.4237652,           0.
   3978,   3.01323891,   10.6885033,           0.
   3979,   2.06165814,    10.566988,           0.
   3980,   1.02964067,   10.4586964,           0.
   3981,    10.238306,    11.637701,           0.
   3982,   9.50971794,   11.6620817,           0.
   3983,   8.17591858,   11.5046034,           0.
   3984,   7.16504526,   11.6912727,           0.
   3985,   6.34910107,   11.8244295,           0.
   3986,   5.10786057,   12.1215887,           0.
   3987,   4.11519051,   11.7593412,           0.
   3988,    3.0608325,   11.4646444,           0.
   3989,   1.99531615,   11.5137196,           0.
   3990,  0.972447634,   11.4092388,           0.
   3991,   11.3102198,   12.6947775,           0.
   3992,   10.2846613,   13.0424662,           0.
   3993,    9.3409071,   12.7516308,           0.
   3994,   8.56357765,   12.6470175,           0.
   3995,   7.37620258,   12.4983788,           0.
   3996,   6.03321695,   12.5572968,           0.
   3997,    5.0502305,   12.8582516,           0.
   3998,   4.27793407,   12.6520624,           0.
   3999,    3.1363461,   12.4153919,           0.
   4000,   2.11823678,    12.353013,           0.
   4001,   1.20450246,   12.6959381,           0.
   4002,   9.50454807,   13.7386332,           0.
   4003,    8.4774189,   13.8131046,           0.
   4004,   7.69615984,   13.4722738,           0.
   4005,   6.32962942,   13.9911718,           0.
   4006,   5.22693539,    13.663599,           0.
   4007,   4.12686348,   13.7115526,           0.
   4008,   3.08485556,   13.5841084,           0.
   4009,   1.98463929,   13.7477703,           0.
   4010,  0.912896276,   14.0606461,           0.
   4011,   9.16246128,   14.8347912,           0.
   4012,   8.44401455,    14.767868,           0.
   4013,   7.37482786,   15.0933504,           0.
   4014,   6.24189854,   14.8188801,           0.
   4015,   5.16791487,    14.835104,           0.
   4016,   4.19013882,   14.7548914,           0.
   4017,   3.15929174,   15.1250153,           0.
   4018,   2.04912543,   14.7677345,           0.
   4019,  0.982790709,    14.930851,           0.
   4020,   8.47508621,   16.2165127,           0.
   4021,   7.43473864,   15.8157883,           0.
   4022,    6.2070384,   15.7562656,           0.
   4023,    5.1957593,   16.1637039,           0.
   4024,    4.2046361,   16.0020771,           0.
   4025,   2.98549867,   15.9566164,           0.
   4026,    2.5227592,   15.6567955,           0.
   4027,   1.17210698,   15.9757109,           0.
   4028,   6.33086014,   16.7782841,           0.
   4029,   5.16614008,   17.3386421,           0.
   4030,   4.06853676,   17.0752182,           0.
   4031,   1.91291034,   17.0961075,           0.
   4032,  0.997353315,   17.0254707,           0.
   4033,    6.0924921,   17.9435101,           0.
   4034,   5.11160135,   18.1676254,           0.
   4035,   3.83452988,   18.0229931,           0.
   4036,     2.740834,   17.7732468,           0.
   4037,   2.02061892,   18.1426449,           0.
   4038,  0.972956777,   18.0164051,           0.
   4039,   5.06654596,   18.9354973,           0.
   4040,   4.06890821,   19.2105541,           0.
   4041,   2.72411442,   19.1407471,           0.
   4042,   1.76144266,   19.1462669,           0.
   4043,  0.895651221,   18.9821301,           0.
   4044,   3.00609851,   20.2732658,           0.
   4045,   1.58721519,   19.8987408,           0.
   4046,  0.839955866,   19.8879032,           0.
   4047,   2.84357452,   21.0493908,           0.
   4048,    1.0948323,   21.0772381,           0.
   4049,   1.81635559,   22.4484158,           0.
   4050,  0.810651779,   22.4085045,           0.
   4051,  0.394447446,   1.95879543,           0.
   4052,   0.55620569,   15.9590282,           0.
   4053,  0.490291744,   14.9552832,           0.
   4054,  0.469249964,   13.9978905,           0.
   4055,  0.675921917,   12.9670362,           0.
   4056,  0.488088548,   11.4336205,           0.
   4057,  0.511685848,   10.4509649,           0.
   4058,  0.532624543,   9.45066643,           0.
   4059,  0.487836123,   8.45606041,           0.
   4060,  0.444233119,   7.47537851,           0.
   4061,  0.428880662,   6.51900005,           0.
   4062,   0.46240595,   5.55243111,           0.
   4063,  0.643177688,   4.49474335,           0.
   4064,  0.430331826,   2.97680092,           0.
   4065,   0.40593344,   2.48432255,           0.
   4066,  0.440497816,   3.46260858,           0.
   4067,  0.478434026,   3.95833635,           0.
   4068,  0.516603231,   5.05705023,           0.
   4069,  0.437777281,   6.03608418,           0.
   4070,  0.432511538,   6.99698973,           0.
   4071,  0.462167382,   7.96082211,           0.
   4072,  0.515478909,   8.95432663,           0.
   4073,  0.528974831,   9.94992733,           0.
   4074,  0.495449781,   10.9458094,           0.
   4075,  0.504069209,   11.9206686,           0.
   4076,   0.55787456,   12.4190788,           0.
   4077,  0.525027394,   13.5076809,           0.
   4078,  0.466622293,   14.4744263,           0.
   4079,   0.52723664,   15.4515457,           0.
   4080,  0.532646477,   16.4662724,           0.
   4081,  0.426657528,   1.28433716,           0.
   4082,  0.197037399,   24.3864803,           0.
   4083,  0.405944914,   23.4023113,           0.
   4084,  0.424100965,   22.3996944,           0.
   4085,  0.620490193,   21.3842602,           0.
   4086,  0.422870159,    19.909256,           0.
   4087,  0.446621418,   18.9476528,           0.
   4088,  0.483206004,   17.9696503,           0.
   4089,  0.508494675,   16.9750366,           0.
   4090,  0.494598061,   17.4751816,           0.
   4091,  0.465661258,   18.4598446,           0.
   4092,  0.427371323,   19.4320431,           0.
   4093,  0.439270735,   20.3855495,           0.
   4094,  0.493486881,   20.8649578,           0.
   4095,  0.489035666,    21.908453,           0.
   4096,  0.407185256,   22.8968601,           0.
   4097,  0.379145086,   23.9727345,           0.
   4098,   2.88177586,   3.49225569,           0.
   4099,   3.58240414,   4.19034386,           0.
   4100,   5.99881649,   6.67259645,           0.
   4101,    6.6971693,   7.37830305,           0.
   4102,   7.74004364,   8.46413898,           0.
   4103,   8.12762928,   16.5668144,           0.
   4104,   9.18117905,   9.87652493,           0.
   4105,   10.9467621,   11.6388865,           0.
   4106,   10.2399893,   10.9346218,           0.
   4107,   8.08642483,   8.82441616,           0.
   4108,   1.50121248,   2.10223508,           0.
   4109,  0.836400568,   1.49377787,           0.
   4110,   2.46028066,    22.263895,           0.
   4111,   2.77774072,   21.8443279,           0.
   4112,   1.64631534,   22.8169956,           0.
   4113,   0.88626343,   24.0798397,           0.
   4114,  0.286280185,   24.6928368,           0.
   4115,   8.82307911,    15.869338,           0.
   4116,   7.08655214,   17.6124363,           0.
   4117,   3.93961072,   20.7490978,           0.
   4118,   4.65578222,   20.0518112,           0.
   4119,   6.05686522,   18.6664162,           0.
   4120,   9.89069748,   10.5836143,           0.
   4121,   11.3044004,   13.4024372,           0.
   4122,    10.230341,   14.4603882,           0.
   4123,   11.3020658,   11.9929657,           0.
   4124,   8.81477833,   9.52606297,           0.
   4125,   7.04641438,   7.73583889,           0.
   4126,   5.65220165,   6.31989813,           0.
   4127,   4.95811367,   5.61212206,           0.
   4128,   4.61354733,   5.25560045,           0.
   4129,   3.92777395,      4.54319,           0.
   4130,   2.53693819,   3.14798594,           0.
   4131,    1.8098532,    2.4842813,           0.
   4132,   6.74634981,     17.96562,           0.
   4133,    9.1710453,   15.5257673,           0.
   4134,   9.87532806,   14.8216915,           0.
   4135,   10.9494467,   13.7533007,           0.
   4136,   5.00816488,   19.7013054,           0.
   4137,   1.31286371,   23.0985222,           0.
   4138,    3.5614171,   21.0998154,           0.
   4139,   5.70926523,   19.0076065,           0.
   4140,   7.77836657,   16.9170399,           0.
   4141,  0.181582838,  0.783002317,           0.
   4142,  0.984783411,   11.8580132,           0.
   4143,  0.983562827,   5.21482706,           0.
   4144,  0.878631592,   3.44522738,           0.
   4145,  0.917504311,   21.9941311,           0.
   4146,   1.04356503,    16.523941,           0.
   4147,  0.973764539,    13.648365,           0.
   4148,  0.862791121,   20.3166218,           0.
   4149,   1.20405436,    1.7519666,           0.
   4150,   9.88404465,   11.2910414,           0.
   4151,   8.84089661,   10.2245388,           0.
   4152,   7.68036127,   9.19366646,           0.
   4153,   10.9595795,   12.3415327,           0.
   4154,   2.31046486,   21.4530373,           0.
   4155,   2.58569288,   3.81453228,           0.
   4156,   5.64468241,   6.98715925,           0.
   4157,   3.61859417,   4.84402847,           0.
   4158,    6.6759305,   8.04820633,           0.
   4159,   8.81029987,   15.1620436,           0.
   4160,    1.1796267,   22.7712269,           0.
   4161,   4.71686029,   19.2847061,           0.
   4162,   3.65498137,   20.3310604,           0.
   4163,   9.87622356,   14.1035566,           0.
   4164,   4.62213135,   5.92445707,           0.
   4165,   7.78256512,   16.1900635,           0.
   4166,   1.18300104,   23.7149258,           0.
   4167,  0.854099452,   19.4434452,           0.
   4168,  0.799797475,   22.8682003,           0.
   4169,  0.801944315,   2.46519518,           0.
   4170,    0.8749789,   6.10414314,           0.
   4171,  0.930788517,   14.4844151,           0.
   4172,  0.995317638,   10.9453945,           0.
   4173,   1.25987291,   22.1205006,           0.
   4174,   1.50214255,   5.01296234,           0.
   4175,   1.30072641,   3.52384353,           0.
   4176,   1.49137318,   13.5278273,           0.
   4177,   1.42705309,   11.8018017,           0.
   4178,   1.25380206,   20.2461243,           0.
   4179,   1.27227461,    19.475771,           0.
   4180,   1.35304821,   5.76302576,           0.
   4181,   1.40797997,   14.4495268,           0.
   4182,   1.50530791,   10.9732494,           0.
   4183,   1.50403273,    16.649744,           0.
   4184,     1.187024,   2.37539721,           0.
   4185,   1.84682357,   5.46876526,           0.
   4186,   1.41832662,   2.90508032,           0.
   4187,   1.62385309,   14.0404243,           0.
   4188,   1.46208298,   11.4087286,           0.
   4189,   1.23002386,   19.8757057,           0.
   4190,   1.33440137,   19.0435734,           0.
   4191,   1.72010279,   6.25979614,           0.
   4192,   1.49685669,    14.862957,           0.
   4193,   1.55120802,   10.4967575,           0.
   4194,   1.46224344,   17.0835667,           0.
   4195,   1.62299633,   4.77568865,           0.
   4196,   1.83435714,   13.3024778,           0.
   4197,   1.87767613,   12.0654039,           0.
   4198,   1.59270334,   20.1808624,           0.
   4199,    1.4103719,   18.5714493,           0.
   4200,   1.68045354,   19.5546246,           0.
   4201,   1.29518497,   6.59535265,           0.
   4202,   1.77485549,   5.87191582,           0.
   4203,   1.56807637,   15.3052435,           0.
   4204,   1.93289363,   14.2681522,           0.
   4205,   2.02188945,   11.0317392,           0.
   4206,   1.62090504,   9.98488426,           0.
   4207,    2.1689198,   2.81656504,           0.
   4208,   1.46897769,   17.5616093,           0.
   4209,   1.86321712,    16.759758,           0.
   4210,    1.7218467,   3.64657331,           0.
   4211,   2.14634967,   16.5216579,           0.
   4212,   2.53245115,   11.0587969,           0.
   4213,   2.10287046,   19.7227802,           0.
   4214,   1.84546125,   20.0447178,           0.
   4215,    2.3739965,   13.2259245,           0.
   4216,   2.47121978,   4.83125639,           0.
   4217,   1.37242544,   4.56044245,           0.
   4218,   1.45439625,   13.0395308,           0.
   4219,   1.50457358,   12.1894293,           0.
   4220,   1.33493829,   20.5879974,           0.
   4221,     1.073282,   9.94776154,           0.
   4222,  0.884485543,   7.01354504,           0.
   4223,  0.983622432,   17.5221176,           0.
   4224,   1.05490136,   15.4158354,           0.
   4225,  0.935980499,   18.5027771,           0.
   4226,   1.87144899,   18.6808147,           0.
   4227,   2.08115363,   15.2279968,           0.
   4228,   2.13726139,   10.1051588,           0.
   4229,   1.65149581,   16.2993622,           0.
   4230,   1.92634487,   17.5591545,           0.
   4231,   2.27692842,   3.47131109,           0.
   4232,   1.11827886,   4.82132769,           0.
   4233,   1.15089762,   13.2966118,           0.
   4234,   2.37313533,   17.0018291,           0.
   4235,   2.37923861,   20.1648331,           0.
   4236,   2.55937052,   11.4834414,           0.
   4237,   2.49245167,   13.6928329,           0.
   4238,   2.80020833,   4.98900223,           0.
   4239,   1.47024214,     18.07547,           0.
   4240,   1.74608338,    9.3918705,           0.
   4241,   2.12258291,   15.6615353,           0.
   4242,   2.44805121,   19.4999466,           0.
   4243,   2.55012131,    10.632658,           0.
   4244,   1.35662055,   21.3409958,           0.
   4245,   2.32051396,   18.8858356,           0.
   4246,   2.45142961,   6.94129324,           0.
   4247,   2.55733466,   15.2461433,           0.
   4248,    2.6162672,   10.2103271,           0.
   4249,   2.66409159,   4.46575737,           0.
   4250,    1.3928014,   22.4224052,           0.
   4251,   1.55139959,   21.8807316,           0.
   4252,   1.10546148,   21.6514339,           0.
   4253,   2.31578803,   17.4942894,           0.
   4254,    2.7177763,   16.5771828,           0.
   4255,   2.59226179,   20.6050053,           0.
   4256,   2.62776566,   11.9147148,           0.
   4257,    2.8865273,   13.0959921,           0.
   4258,   2.55903435,   14.1985598,           0.
   4259,   2.26259351,   5.60189056,           0.
   4260,   3.02429938,   4.77257824,           0.
   4261,   2.72940397,    19.869854,           0.
   4262,   2.99515343,   11.0659733,           0.
   4263,   2.60211301,   6.45749521,           0.
   4264,   2.69350076,   14.7512026,           0.
   4265,   2.74908829,   9.76833725,           0.
   4266,   2.82384109,   15.6696815,           0.
   4267,    2.5097127,   7.39959478,           0.
   4268,     2.490417,   18.4837303,           0.
   4269,   2.16725039,   22.6672707,           0.
   4270,   1.05908263,   12.3008318,           0.
   4271,  0.837178409,   3.84745669,           0.
   4272,    2.7659421,   17.2562122,           0.
   4273,   1.04189491,   8.91820812,           0.
   4274,   2.08904433,   20.8766937,           0.
   4275,   2.64113307,   12.3161077,           0.
   4276,   3.09939623,   14.0873909,           0.
   4277,    2.8853631,   5.39703417,           0.
   4278,   2.05791521,   22.0157089,           0.
   4279,   2.15465856,   5.99106932,           0.
   4280,   2.53105211,   9.38372517,           0.
   4281,   2.96338296,   15.4249821,           0.
   4282,    2.2707653,   8.00397968,           0.
   4283,   2.80079865,   6.98504066,           0.
   4284,   2.59993148,   17.5000401,           0.
   4285,   3.04588604,   10.3288317,           0.
   4286,   3.21161151,   16.3521633,           0.
   4287,   3.36498737,   11.0458527,           0.
   4288,   3.06407022,   19.5085812,           0.
   4289,   2.24276352,   9.04197979,           0.
   4290,   1.56340826,   8.82943249,           0.
   4291,   3.28369141,   5.79530001,           0.
   4292,   3.56553125,   14.0440483,           0.
   4293,   1.88363445,   8.21660805,           0.
   4294,   2.70158601,   7.83241796,           0.
   4295,   3.21863389,   17.3779545,           0.
   4296,   3.56109929,   16.8383751,           0.
   4297,   3.21279478,   14.5179329,           0.
   4298,   2.98292708,   6.11444283,           0.
   4299,   3.39918566,   19.1232834,           0.
   4300,   3.50621915,   10.7185307,           0.
   4301,   3.36629629,   19.9163303,           0.
   4302,   3.57230425,   11.3623552,           0.
   4303,   2.91756725,    9.1352005,           0.
   4304,   2.60143638,   16.0772095,           0.
   4305,   3.57441282,   16.0450764,           0.
   4306,   2.87842226,   8.23273563,           0.
   4307,   3.06552553,   8.54816246,           0.
   4308,   3.14351392,   7.69099331,           0.
   4309,   3.32839489,   8.90568924,           0.
   4310,   3.61266899,   5.50179243,           0.
   4311,     3.577384,   13.6831255,           0.
   4312,   2.46764874,   8.42127132,           0.
   4313,   1.39636517,   7.45404005,           0.
   4314,   3.91143608,   16.3933239,           0.
   4315,   3.02177811,   18.6560726,           0.
   4316,   3.37754321,   10.3981905,           0.
   4317,   3.71534181,    19.557642,           0.
   4318,    3.8444972,   11.0181093,           0.
   4319,   3.11745501,   11.9052305,           0.
   4320,   3.27624965,    15.715867,           0.
   4321,    3.2396183,   17.9091492,           0.
   4322,   2.67342734,   8.78506184,           0.
   4323,   3.54919457,   7.46714354,           0.
   4324,   3.51635242,   9.30006981,           0.
   4325,   3.95090818,   5.86731195,           0.
   4326,   3.51549029,   13.3312654,           0.
   4327,   3.93414927,    14.031436,           0.
   4328,   1.36629951,   7.01053715,           0.
   4329,   1.74072278,   7.87830019,           0.
   4330,    3.6276536,   11.8390131,           0.
   4331,   3.55480266,   17.5146885,           0.
   4332,   3.55390644,   10.1506891,           0.
   4333,   3.76050782,   18.7792683,           0.
   4334,   3.87371373,   15.6902065,           0.
   4335,   3.52050734,   15.4193134,           0.
   4336,   4.18522835,   15.2666769,           0.
   4337,   3.69826651,   12.3033323,           0.
   4338,   3.74970865,   9.74649525,           0.
   4339,   3.47346377,   18.3392849,           0.
   4340,   4.18688154,   12.2072229,           0.
   4341,   4.12236834,   10.1210861,           0.
   4342,   4.11818886,   18.4480762,           0.
   4343,   3.29080749,   7.07840109,           0.
   4344,    3.8341558,   7.88190889,           0.
   4345,   3.82864785,   9.14580536,           0.
   4346,   3.97928596,   13.2237701,           0.
   4347,   4.17044735,   17.7443447,           0.
   4348,   1.37254775,    7.8914814,           0.
   4349,   3.82250428,   12.7634039,           0.
   4350,   4.40285254,   13.0926514,           0.
   4351,   4.80782795,   15.9442225,           0.
   4352,   3.17580271,   10.0036764,           0.
   4353,   2.91261411,   18.1288986,           0.
   4354,   4.59136295,   11.6527967,           0.
   4355,   4.52419519,   10.4499311,           0.
   4356,    4.4166317,   18.8665142,           0.
   4357,   3.82684588,   8.68472958,           0.
   4358,  0.925454378,   7.93178177,           0.
   4359,   3.43010902,   14.8824434,           0.
   4360,   4.46027613,   17.3927784,           0.
   4361,   4.46461105,   18.1141911,           0.
   4362,   3.92123508,   7.19144964,           0.
   4363,   3.95210099,   6.52901745,           0.
   4364,   4.27351761,   6.89655781,           0.
   4365,   4.58641434,   13.5165901,           0.
   4366,   4.57513762,    16.303524,           0.
   4367,   4.99103832,   15.6002026,           0.
   4368,    4.6487751,   12.1342812,           0.
   4369,   4.46045494,   11.1615019,           0.
   4370,   4.78401327,   9.99430275,           0.
   4371,   4.76503706,   18.5200043,           0.
   4372,   4.80173874,   17.7501125,           0.
   4373,   4.59740496,   7.25953102,           0.
   4374,   4.46604204,   14.1641121,           0.
   4375,   4.96995926,   13.3131542,           0.
   4376,     4.668262,   15.1478004,           0.
   4377,   4.97658539,   16.5754929,           0.
   4378,   4.73241091,   17.0096645,           0.
   4379,   4.99128437,   10.9108553,           0.
   4380,    5.3655591,   16.8095608,           0.
   4381,   4.71092463,    14.663168,           0.
   4382,   4.95682001,   9.38291359,           0.
   4383,   4.56539392,   7.92836809,           0.
   4384,   4.95240164,   6.94936514,           0.
   4385,   5.06446838,   11.5803709,           0.
   4386,   4.77257872,    12.962389,           0.
   4387,   4.85708332,   13.9389534,           0.
   4388,   4.31403065,   16.6971645,           0.
   4389,   5.59307098,   11.0526009,           0.
   4390,   4.68713474,   12.5671568,           0.
   4391,   5.49616861,   14.0094566,           0.
   4392,   4.72229481,   9.15224266,           0.
   4393,   4.93112135,   7.60942125,           0.
   4394,   4.61977816,   6.59139967,           0.
   4395,   5.89823484,   16.7307014,           0.
   4396,    5.8100419,   10.5065136,           0.
   4397,   5.65927792,   16.3775768,           0.
   4398,    5.9527626,   11.6666956,           0.
   4399,   4.92167091,   8.25833702,           0.
   4400,   5.27353477,   7.94887114,           0.
   4401,   6.01661444,    13.882947,           0.
   4402,   5.56020164,   17.3119755,           0.
   4403,   5.77934933,   10.0279598,           0.
   4404,   5.71623707,   15.9118624,           0.
   4405,   6.06459045,   11.2222548,           0.
   4406,    5.5938735,   12.2043028,           0.
   4407,   4.95726824,   8.86371708,           0.
   4408,   5.24556828,   9.15011787,           0.
   4409,    5.6305604,   7.64445925,           0.
   4410,   5.63751888,   13.3748999,           0.
   4411,   5.90909386,   14.2435875,           0.
   4412,    5.4420681,   9.96402454,           0.
   4413,   5.30608034,   5.96585989,           0.
   4414,   5.48245287,   15.3669205,           0.
   4415,   6.27068472,   10.2156992,           0.
   4416,   6.13296413,    16.299284,           0.
   4417,   5.68090057,   9.72816467,           0.
   4418,   6.50849342,    10.438982,           0.
   4419,   5.97153616,   7.99093914,           0.
   4420,   5.75154734,   14.6068945,           0.
   4421,   6.07920122,   17.2494621,           0.
   4422,   6.48021412,   16.0842857,           0.
   4423,   5.61662769,    14.984334,           0.
   4424,   6.11249113,   13.5254879,           0.
   4425,   5.30411625,   6.63507986,           0.
   4426,   5.57476568,   8.89239311,           0.
   4427,   5.79009008,   17.6005325,           0.
   4428,   5.84790564,   12.9327631,           0.
   4429,     6.259758,    13.172473,           0.
   4430,   6.65698385,   10.9885406,           0.
   4431,   6.78380394,   15.7892275,           0.
   4432,   5.61187077,   8.28264618,           0.
   4433,   5.47868586,   9.45036411,           0.
   4434,   6.75150919,   16.4768429,           0.
   4435,   6.41992283,   17.5847225,           0.
   4436,     6.501863,   13.7488089,           0.
   4437,   6.87247467,   10.5911055,           0.
   4438,   6.48036718,   11.4001017,           0.
   4439,   7.10570717,     16.15592,           0.
   4440,   6.43816471,   15.4576988,           0.
   4441,   5.93366575,   8.62309647,           0.
   4442,    6.7388587,   17.2130527,           0.
   4443,   6.22273016,   8.97590542,           0.
   4444,   7.35284996,   12.8817244,           0.
   4445,   6.45438862,   14.3853655,           0.
   4446,   6.61223459,   9.72653198,           0.
   4447,   7.02064657,   11.1551151,           0.
   4448,   6.40197372,   18.3221321,           0.
   4449,    7.0767498,   15.4537868,           0.
   4450,   6.04502678,   15.1900711,           0.
   4451,   6.84497309,   11.5561171,           0.
   4452,   7.58509779,    10.965188,           0.
   4453,   6.83543396,    14.044529,           0.
   4454,   6.95641088,   12.7422228,           0.
   4455,   6.68390894,    15.113966,           0.
   4456,   5.75468922,   18.2714272,           0.
   4457,   7.42945004,   17.2659492,           0.
   4458,   6.64657307,   12.4469948,           0.
   4459,   6.94691372,    14.744483,           0.
   4460,   7.52074814,    13.955307,           0.
   4461,   7.85433388,   10.6016092,           0.
   4462,   7.43796539,    16.535984,           0.
   4463,   6.62225246,   8.71410847,           0.
   4464,   6.72307158,   11.9760523,           0.
   4465,   6.23015308,   12.2285814,           0.
   4466,   8.17134094,   13.6237259,           0.
   4467,   7.47337437,   10.3482437,           0.
   4468,   7.90066719,   11.2102442,           0.
   4469,   7.25128841,   14.3646088,           0.
   4470,   7.69967842,   12.1468887,           0.
   4471,   5.46114254,   12.6814251,           0.
   4472,   8.06240654,     14.25811,           0.
   4473,   7.81969261,   12.9412422,           0.
   4474,   8.02636242,   12.0334997,           0.
   4475,   8.14378452,   10.2391129,           0.
   4476,   7.72827387,    9.9307003,           0.
   4477,   7.74730349,   12.4886007,           0.
   4478,   7.63994122,   11.5077419,           0.
   4479,    8.5843935,   13.4240189,           0.
   4480,   5.08352947,   12.5521345,           0.
   4481,    8.1844635,   12.7342958,           0.
   4482,   8.95314407,    13.416049,           0.
   4483,   8.11728573,   12.3727512,           0.
   4484,   7.02356005,   12.4359751,           0.
   4485,   8.90642929,   13.9256887,           0.
   4486,    9.1179657,   13.6948538,           0.
   4487,   8.55344772,   14.1344385,           0.
   4488,   9.18935299,   13.0247746,           0.
   4489,   9.19010067,   14.1800051,           0.
   4490,   8.53553867,   12.2318878,           0.
   4491,   8.82134533,   14.4930487,           0.
   4492,   8.39701939,   11.8503494,           0.
   4493,  0.941143095,   20.7230587,           0.
   4494,   7.69649839,   14.7032042,           0.
   4495,   5.20101833,   14.3939209,           0.
   4496,      3.62535,   6.16015863,           0.
   4497,   8.46505642,   15.4943161,           0.
   4498,   8.12336063,   15.8405428,           0.
   4499,   3.29379511,   4.49068689,           0.
   4500,   6.33350849,   7.68845129,           0.
   4501,   4.36502123,   19.6336212,           0.
   4502,   7.76014137,    15.461154,           0.
   4503,    5.4521122,   17.8623734,           0.
   4504,   3.27069545,   20.6851616,           0.
   4505,   5.41250467,   18.5975266,           0.
   4506,    9.3378458,   13.2993498,           0.
   4507,   8.51294804,   11.2302132,           0.
   4508,   8.97038174,   12.6224642,           0.
   4509,   1.44126296,   8.34918118,           0.
   4510,   6.46111727,   9.34561348,           0.
   4511,   2.25322628,   12.7909365,           0.
   4512,   8.80080223,   11.6154423,           0.
   4513,   9.56635571,   12.3775558,           0.
   4514,   4.29912758,   20.4009647,           0.
   4515,   5.35877037,   19.3536472,           0.
   4516,   3.16502881,   21.4604912,           0.
   4517,   8.85499191,   10.9169188,           0.
   4518,   9.65526962,   13.0408487,           0.
   4519,   3.23105812,   3.83838606,           0.
   4520,   6.34813452,   7.02332163,           0.
   4521,   4.28338146,   5.56398726,           0.
   4522,   7.34201336,   8.80824184,           0.
   4523,   8.09428596,   15.1003408,           0.
   4524,   9.08141708,   12.0918217,           0.
   4525,   9.52342033,   14.4826183,           0.
   4526,   9.93485355,   13.3932276,           0.
   4527,   9.95108318,   12.7019129,           0.
   4528,    9.1815834,   11.2907238,           0.
   4529,   9.88610554,   12.0023603,           0.
   4530,   7.39254093,   8.09903812,           0.
   4531,   4.27047825,   4.89816952,           0.
   4532,    8.4646349,   9.88150406,           0.
   4533,   9.52110767,   15.1794815,           0.
   4534,   8.44531822,   9.17711735,           0.
   4535,   10.2655735,   12.3460884,           0.
   4536,   8.06916046,   9.54386234,           0.
   4537,    10.601449,   11.9907713,           0.
   4538,   9.53806686,   10.2304268,           0.
   4539,   10.9637251,   13.0447855,           0.
   4540,   9.19599056,   10.5787497,           0.
   4541,   10.5909357,   11.2870483,           0.
   4542,    11.655653,   13.0532122,           0.
   4543,   10.6134729,   13.3949623,           0.
   4544,   10.5903454,    14.106246,           0.
   4545,   12.0048714,   12.7031908,           0.
   4546,  0.575254321,   24.3923149,           0.
   4547,    1.5316844,   23.3799038,           0.
   4548,   11.6545687,   12.3480539,           0.
   4549,   1.87723589,   23.0365276,           0.
   4550,  0.700376928,   23.8412189,           0.
   4551,   1.03349578,   2.02526355,           0.
   4552,   10.6209955,   12.6940126,           0.
   4553,   1.49553013,    22.620369,           0.
   4554,   1.15050995,   22.4264278,           0.
   4555,   1.69985807,    4.1047864,           0.
   4556,    1.7121979,   4.51272774,           0.
   4557,   6.91968393,   9.11935997,           0.
   4558,   1.42295814,   5.36498404,           0.
   4559,   1.30209768,   6.17205572,           0.
   4560,   1.65238059,   12.5348043,           0.
   4561,    1.8008976,    12.893405,           0.
   4562,   1.33847022,    13.772583,           0.
   4563,   1.32259357,    14.097044,           0.
   4564,   1.67043793,   15.7289801,           0.
   4565,   1.46505857,   20.8922215,           0.
   4566,   1.65969527,   21.1462116,           0.
   4567,   1.51976347,   22.2243633,           0.
   4568,   1.82264328,   16.0436554,           0.
   4569,   1.72442472,    21.467308,           0.
   4570,   2.06947803,   3.74278212,           0.
   4571,   8.19882298,   10.8959427,           0.
   4572,   7.06241941,   10.1642647,           0.
   4573,   2.18282318,   16.0819263,           0.
   4574,    1.6303699,   13.7840128,           0.
   4575,   1.63909745,   6.57639408,           0.
   4576,   2.03915811,   8.63777637,           0.
   4577,   1.76832402,   11.7972412,           0.
   4578,   1.69123769,   20.4711437,           0.
   4579,   1.74819362,   20.7362041,           0.
   4580,   2.08082294,   4.62794971,           0.
   4581,   6.63645887,    10.107379,           0.
   4582,   2.37004018,   5.21938038,           0.
   4583,    2.0201242,   20.3777561,           0.
   4584,   5.83387566,   9.21506786,           0.
   4585,   3.62186956,   6.81362581,           0.
   4586,   6.16880178,   9.88196659,           0.
   4587,   2.71741223,   12.6754293,           0.
   4588,   8.55972862,   13.0478516,           0.
   4589,   5.72240496,   17.0197487,           0.
   4590,   2.17087674,   11.9464359,           0.
   4591,   8.91339779,   13.0268679,           0.
   4592,   1.91753852,   6.90196323,           0.
   4593,   2.41464567,   17.9058132,           0.
   4594,   4.19627857,   8.27237415,           0.
   4595,   3.00362849,   6.73468781,           0.
   4596,   6.01725197,   15.9851627,           0.
   4597,   2.14831209,   19.2842026,           0.
   4598,    3.3403337,   12.9036808,           0.
   4599,   3.07381678,   17.0027599,           0.
   4600,     2.609061,   18.1847382,           0.
   4601,   2.66638899,   5.79762793,           0.
   4602,   2.47237897,   6.07246113,           0.
   4603,   7.35145187,    11.322319,           0.
   4604,   8.72022915,   13.6623678,           0.
   4605,   5.86271238,   15.5406532,           0.
   4606,   3.33885908,    9.7432127,           0.
   4607,   5.34822607,   15.7659864,           0.
   4608,   7.88104534,   11.7326937,           0.
   4609,   4.34130764,   8.95546722,           0.
   4610,   2.99832702,   17.5845642,           0.
   4611,   3.65221143,   14.4165792,           0.
   4612,   3.75886321,   14.7778358,           0.
   4613,   3.91855621,   17.4419117,           0.
   4614,   4.65360737,   9.49032021,           0.
   4615,   3.72594357,   15.1092577,           0.
   4616,   7.45378399,   11.8092146,           0.
   4617,   7.67346716,   11.8960781,           0.
   4618,   8.19677067,   13.0894899,           0.
   4619,   7.07159567,   13.6813774,           0.
   4620,   7.24402618,   13.2865381,           0.
   4621,   4.46621275,   15.6730709,           0.
   4622,   5.08483744,    15.228054,           0.
   4623,   4.07748699,   14.3403883,           0.
   4624,     7.064044,   12.0658283,           0.
   4625,   5.53150129,   11.6090746,           0.
   4626,   4.18696356,   10.7584515,           0.
   4627,   4.70277882,   15.4758224,           0.
   4628,   7.39112186,    12.135869,           0.
   4629,   4.02269363,   11.3374519,           0.
   4630,   5.91586542,   12.0366449,           0.
   4631,    4.3501997,   9.86894989,           0.
   4632,    6.6668334,   13.4201641,           0.
   4633,   6.81852579,   13.0679359,           0.
   4634,   5.28485107,   13.0569611,           0.
   4635,   6.43569231,    12.815506,           0.
   4636,    5.7142787,   13.7662935,           0.
   4637,   10.6644392,   39.0855484,           0.
   4638,   7.20321369,   42.1633835,           0.
   4639,   4.10252905,   45.3123627,           0.
   4640,  0.864091218,   48.7805099,           0.
   4641,   1.17683256,   38.1879158,           0.
   4642,   2.09094954,   38.1047821,           0.
   4643,   3.15208554,   38.1512489,           0.
   4644,   4.07633877,   38.1389427,           0.
   4645,   5.13840818,   38.3290863,           0.
   4646,   6.62378502,   38.2294044,           0.
   4647,   7.60263824,   37.9085121,           0.
   4648,   8.69510269,   38.2748337,           0.
   4649,   9.61215591,   37.9609451,           0.
   4650,   10.5372124,   37.9200859,           0.
   4651,   11.6255178,   37.7298164,           0.
   4652,   9.33682346,    39.296402,           0.
   4653,   8.16572094,   39.1607895,           0.
   4654,   7.26867914,   39.3563499,           0.
   4655,   6.20193911,   39.2330055,           0.
   4656,   4.97149801,   39.3347015,           0.
   4657,   3.48954988,   39.1635208,           0.
   4658,   1.95770085,   38.9045525,           0.
   4659,  0.931220353,   39.5267487,           0.
   4660,   9.50549984,    40.019043,           0.
   4661,   8.47448444,   40.2431564,           0.
   4662,   7.30612707,   40.2443199,           0.
   4663,   6.12336683,   40.0040665,           0.
   4664,   5.21978807,   40.0070534,           0.
   4665,   4.17977428,   40.1330185,           0.
   4666,   3.23660254,   40.5744095,           0.
   4667,   2.13882685,   40.2235146,           0.
   4668,  0.883925855,   40.4232712,           0.
   4669,   8.62076283,   40.9771423,           0.
   4670,   7.37678146,   41.2767715,           0.
   4671,   6.26590109,   41.1689568,           0.
   4672,   5.02854967,   40.9283447,           0.
   4673,   4.11873865,    41.409729,           0.
   4674,   3.27714944,   41.1374245,           0.
   4675,   2.05801582,   41.2829971,           0.
   4676,  0.939488113,   41.3296013,           0.
   4677,   6.17316198,   42.3072166,           0.
   4678,   5.30887651,   42.1615562,           0.
   4679,   4.61390686,   42.3934631,           0.
   4680,    3.3956964,   42.3041649,           0.
   4681,   1.95930064,   42.4948845,           0.
   4682,   1.01091647,     42.30933,           0.
   4683,   6.45596457,    43.173893,           0.
   4684,   5.54737616,   43.2318306,           0.
   4685,   4.42854738,    43.460495,           0.
   4686,   1.98077679,   43.3372879,           0.
   4687,  0.983698785,   43.3161736,           0.
   4688,   5.47403622,   44.3132133,           0.
   4689,   4.16490746,   44.3238029,           0.
   4690,   3.17417312,   44.1993179,           0.
   4691,   1.91365421,   44.2664337,           0.
   4692,  0.953896344,   44.2962189,           0.
   4693,   3.40117455,   45.4226608,           0.
   4694,   1.98215795,    45.602211,           0.
   4695,  0.975495279,   45.2748337,           0.
   4696,   3.26110458,   46.3798141,           0.
   4697,   2.34190798,   46.5586739,           0.
   4698,   1.14396656,    46.673233,           0.
   4699,   1.95908427,    47.427784,           0.
   4700,  0.724253118,     47.82584,           0.
   4701,   1.00099921,    36.855484,           0.
   4702,   1.99950159,   36.8415833,           0.
   4703,   3.45492768,   36.8635521,           0.
   4704,    4.3713994,   37.0685806,           0.
   4705,   5.19716692,   37.1506844,           0.
   4706,   6.15413952,    37.234745,           0.
   4707,     7.330966,   37.1125946,           0.
   4708,   8.66282845,   37.2619476,           0.
   4709,    9.6509943,    36.992775,           0.
   4710,   10.5985956,   36.6534843,           0.
   4711,   1.00180924,   35.8891258,           0.
   4712,   1.99864459,   35.9318161,           0.
   4713,   2.99080801,   36.0071678,           0.
   4714,   4.13094234,   36.0615578,           0.
   4715,   5.51069069,   35.9386826,           0.
   4716,   6.14155817,   35.8819275,           0.
   4717,   7.44529152,   35.8256493,           0.
   4718,   8.34674549,   35.9087791,           0.
   4719,   9.15028095,   36.1841736,           0.
   4720,   1.02126181,   34.8896828,           0.
   4721,   2.08519053,   34.9385109,           0.
   4722,    3.4602685,   34.9132767,           0.
   4723,   4.11824226,   34.5860939,           0.
   4724,   5.03645563,    35.064888,           0.
   4725,   6.08677387,   34.7244339,           0.
   4726,   7.39919281,   34.7160606,           0.
   4727,    8.0443716,   34.7773476,           0.
   4728,  0.984190404,   33.8985176,           0.
   4729,   1.97622108,   33.8236275,           0.
   4730,   3.32239723,   33.7822189,           0.
   4731,   4.42828369,   33.8352394,           0.
   4732,   5.08242083,   33.8027878,           0.
   4733,   6.42115593,   33.7797241,           0.
   4734,   7.09748125,   33.7856674,           0.
   4735,  0.901259899,   32.9146919,           0.
   4736,   2.30111647,   32.8842278,           0.
   4737,   3.10083199,   32.8180161,           0.
   4738,   3.99805522,    32.845047,           0.
   4739,   5.35412121,   32.7961998,           0.
   4740,   6.04332733,    32.789135,           0.
   4741,  0.831432104,   31.9986324,           0.
   4742,   2.15304279,   31.5364246,           0.
   4743,   3.11444926,   31.8033848,           0.
   4744,   3.95884037,   31.3434639,           0.
   4745,  0.880419195,   31.1155434,           0.
   4746,   2.03919387,   30.4666615,           0.
   4747,   2.94583464,   30.2861881,           0.
   4748,   3.97497606,   30.6631374,           0.
   4749,   1.11989212,    29.790535,           0.
   4750,   1.96433818,   29.2469292,           0.
   4751,   2.97296906,   29.5841198,           0.
   4752,  0.914246678,   28.3632393,           0.
   4753,   1.92886567,   28.5674858,           0.
   4754,  0.750775576,    27.401453,           0.
   4755,  0.365940362,    47.839386,           0.
   4756,   0.61236459,   46.8782005,           0.
   4757,  0.398017168,   48.8125916,           0.
   4758,  0.196170896,   49.7969322,           0.
   4759,   0.48215431,   45.3075371,           0.
   4760,   0.47889033,   44.3194237,           0.
   4761,  0.491988093,   43.3272934,           0.
   4762,  0.496423364,   42.3334618,           0.
   4763,   0.46092099,   41.3509483,           0.
   4764,  0.436993748,   40.3908691,           0.
   4765,  0.468359739,   39.4292107,           0.
   4766,  0.664149284,   38.4175186,           0.
   4767,  0.500563443,   36.8654251,           0.
   4768,   0.49981764,   35.8790207,           0.
   4769,  0.505213499,    34.884079,           0.
   4770,  0.486597121,   33.8954201,           0.
   4771,   0.44525528,   32.9086151,           0.
   4772,  0.412990153,   31.9443874,           0.
   4773,  0.443330765,   30.9867649,           0.
   4774,  0.642618239,   29.9919167,           0.
   4775,  0.453447759,   28.3967419,           0.
   4776,    0.3987059,   27.3716793,           0.
   4777,  0.181809619,   26.1928215,           0.
   4778,   0.42777729,   26.6957912,           0.
   4779,  0.416889399,   27.9000568,           0.
   4780,  0.487589389,   28.8960705,           0.
   4781,  0.537738264,   29.4096279,           0.
   4782,  0.505382657,   30.5091686,           0.
   4783,  0.417735785,   31.4630375,           0.
   4784,  0.424611926,   32.4245338,           0.
   4785,  0.467659563,   33.4001236,           0.
   4786,   0.49955228,   34.3891029,           0.
   4787,  0.504183471,   35.3815842,           0.
   4788,  0.497401774,   36.3738785,           0.
   4789,  0.517691016,   37.3564453,           0.
   4790,  0.561073661,   37.8567047,           0.
   4791,  0.527208924,   38.9468956,           0.
   4792,  0.443962574,   39.9081688,           0.
   4793,  0.444964796,   40.8705444,           0.
   4794,  0.480559528,    41.839138,           0.
   4795,  0.497662902,   42.8295784,           0.
   4796,  0.483383805,   43.8237762,           0.
   4797,  0.478820294,   44.8164711,           0.
   4798,  0.488090277,   45.7992859,           0.
   4799,  0.524162054,   46.3100624,           0.
   4800,  0.405421734,   47.3761787,           0.
   4801,   0.38301751,   48.3132896,           0.
   4802,  0.377003253,    49.383358,           0.
   4803,    9.8672266,   36.0106201,           0.
   4804,   8.47496128,   41.6065445,           0.
   4805,   2.74146581,   47.2099686,           0.
   4806,  0.286129802,   50.1029015,           0.
   4807,  0.885583997,   49.4895744,           0.
   4808,   4.84270191,   45.2016296,           0.
   4809,   7.39403296,   42.7794456,           0.
   4810,   7.95976257,   41.8886681,           0.
   4811,   9.57015991,   40.6496544,           0.
   4812,   8.73417854,   34.9205017,           0.
   4813,   0.83836174,   26.9049835,           0.
   4814,   6.01871967,   32.1044464,           0.
   4815,   2.90391588,   28.9156017,           0.
   4816,   3.59383011,   29.6248207,           0.
   4817,   1.50590849,   27.5081444,           0.
   4818,   4.96812963,   31.0525646,           0.
   4819,   3.93881845,   29.9786472,           0.
   4820,   2.54674387,   28.5679932,           0.
   4821,   1.81791091,   27.8849621,           0.
   4822,   9.00158501,   35.4098625,           0.
   4823,   10.9458895,   37.0015602,           0.
   4824,   11.5907402,   38.4282761,           0.
   4825,   5.99757195,   44.0644264,           0.
   4826,   2.12428498,   48.0864334,           0.
   4827,   7.77810574,   33.8188248,           0.
   4828,   6.72882271,   32.7937088,           0.
   4829,   5.15222359,   44.7947006,           0.
   4830,   3.23340273,   46.9665947,           0.
   4831,   3.89384556,   46.3063049,           0.
   4832,   6.39986992,   43.7846298,           0.
   4833,   7.08547449,    43.146595,           0.
   4834,   10.1871881,   39.9553261,           0.
   4835,   10.4706726,   39.5797577,           0.
   4836,   11.1733894,    38.750988,           0.
   4837,   10.2384224,   36.3224831,           0.
   4838,   8.11522007,   34.1653404,           0.
   4839,   7.08255625,    33.135498,           0.
   4840,   4.62638855,   30.6948414,           0.
   4841,   5.66509342,   31.7562008,           0.
   4842,   9.23613834,   40.9909973,           0.
   4843,    1.3035568,   48.4899673,           0.
   4844,   4.20932245,   45.9489784,           0.
   4845,   11.2857351,   37.3620682,           0.
   4846,  0.690143049,    47.487648,           0.
   4847,   1.00710583,   39.1149864,           0.
   4848,  0.966320634,   30.7175808,           0.
   4849,  0.954209268,   28.8632011,           0.
   4850,    1.0243026,   37.3227043,           0.
   4851,  0.953953981,   45.7505112,           0.
   4852,   1.20704699,    27.160656,           0.
   4853,   7.83927965,   41.3385315,           0.
   4854,    6.7515254,   33.4543419,           0.
   4855,   4.63819456,   44.5295715,           0.
   4856,   3.80871224,   45.6786575,           0.
   4857,   10.9187202,    37.653286,           0.
   4858,   7.75285816,   34.4393845,           0.
   4859,   2.63551044,   29.2259235,           0.
   4860,   3.63623786,   30.3030701,           0.
   4861,   9.24374485,   40.3689194,           0.
   4862,   4.62916136,   31.3977413,           0.
   4863,   1.62946701,   48.2888298,           0.
   4864,   10.0452919,    39.442379,           0.
   4865,   7.00627756,   42.5507355,           0.
   4866,   5.79657936,   43.6419144,           0.
   4867,   8.38721371,   35.5093498,           0.
   4868,   9.91762066,   36.6614342,           0.
   4869,   5.68528891,   32.4480553,           0.
   4870,   11.2427101,   38.0364914,           0.
   4871,   1.18200493,   49.1232605,           0.
   4872,  0.892916799,   39.9645729,           0.
   4873,  0.996685147,   36.3767395,           0.
   4874,  0.778110802,   48.2590561,           0.
   4875,   0.81636852,   27.8774548,           0.
   4876,  0.837639749,   31.5472851,           0.
   4877,  0.957832336,   44.7886696,           0.
   4878,   1.52964425,   37.2926445,           0.
   4879,   1.45484722,   47.1490479,           0.
   4880,   1.39738512,   28.8422813,           0.
   4881,   1.50122237,   30.6140251,           0.
   4882,   1.37520707,   45.7489166,           0.
   4883,    1.5390842,   38.9323578,           0.
   4884,   1.39685082,   39.6246376,           0.
   4885,    1.4960053,   36.3825493,           0.
   4886,   1.30950522,   31.2592659,           0.
   4887,   1.41304553,   44.7437172,           0.
   4888,   1.19040835,   48.0985489,           0.
   4889,   1.20001245,    27.778019,           0.
   4890,   1.50482976,   36.8445473,           0.
   4891,   1.44674408,   28.2797794,           0.
   4892,   1.87750053,   30.7636204,           0.
   4893,   1.54213572,   45.2638397,           0.
   4894,     1.928285,   39.3306656,           0.
   4895,   1.76626658,   40.0898857,           0.
   4896,   1.50375223,   35.9042244,           0.
   4897,   1.73574507,   31.4025879,           0.
   4898,   1.41985154,   44.2690582,           0.
   4899,   2.02616549,   37.2769661,           0.
   4900,   1.62091327,   30.3519115,           0.
   4901,   1.89544404,   46.2203979,           0.
   4902,   1.63857412,    38.699913,           0.
   4903,   1.85482132,   39.7134705,           0.
   4904,    1.3249023,    40.438797,           0.
   4905,    1.9908911,   36.3922081,           0.
   4906,   1.52467179,   35.4108505,           0.
   4907,   2.21190667,   31.1697598,           0.
   4908,   1.23710001,   32.0385513,           0.
   4909,   1.98665416,   44.9374886,           0.
   4910,   1.43647456,   43.8028526,           0.
   4911,   2.18526554,   28.2238522,           0.
   4912,   1.75748968,   28.8690948,           0.
   4913,   2.63002276,   44.8720322,           0.
   4914,   2.48130608,   36.4072304,           0.
   4915,   2.55258632,   38.5704041,           0.
   4916,   2.36889648,   46.0063057,           0.
   4917,   1.98915923,   30.0668964,           0.
   4918,    2.5109303,   37.2683983,           0.
   4919,   1.57556963,   37.7148743,           0.
   4920,   1.33785784,   30.1589317,           0.
   4921,   1.38561916,   46.1109772,           0.
   4922,   1.37568414,   38.5274773,           0.
   4923,   0.90828079,   40.8735619,           0.
   4924,  0.860182941,   32.4501991,           0.
   4925,  0.962990642,   43.8077469,           0.
   4926,   1.01331723,   35.3909531,           0.
   4927,   2.02765393,   35.4505959,           0.
   4928,   1.56732309,    32.034996,           0.
   4929,    1.8885926,   43.8120422,           0.
   4930,   1.47040927,   29.2929287,           0.
   4931,   2.27586865,   28.8959694,           0.
   4932,   1.67428803,   47.8863525,           0.
   4933,   1.79645407,   46.7922859,           0.
   4934,   1.11240888,   30.3847008,           0.
   4935,   1.14219308,   38.7645988,           0.
   4936,   2.99028635,   39.0980148,           0.
   4937,    2.6988225,   45.5480881,           0.
   4938,   2.46713543,   30.3764725,           0.
   4939,   2.48861718,   36.8390427,           0.
   4940,   1.55301368,   34.8983841,           0.
   4941,    1.4709599,   43.3167038,           0.
   4942,   2.56505775,   44.2128601,           0.
   4943,   2.49118161,   35.9665527,           0.
   4944,   2.41448784,   47.6755562,           0.
   4945,   2.49644756,   40.6736946,           0.
   4946,   2.51906323,   35.5164032,           0.
   4947,   2.33594537,    32.471283,           0.
   4948,   2.24010968,   43.9253044,           0.
   4949,  0.959930003,   47.2963181,           0.
   4950,   2.41782284,   39.4337006,           0.
   4951,   3.05125093,   38.6403046,           0.
   4952,   2.87020159,   46.1894073,           0.
   4953,   2.19406128,   30.8110237,           0.
   4954,   2.68263507,   29.8455601,           0.
   4955,   3.03437018,   37.6747856,           0.
   4956,   2.20316982,   47.0191193,           0.
   4957,   2.91288304,   44.5193748,           0.
   4958,   2.97882104,   36.4264145,           0.
   4959,   2.47223067,   40.3258934,           0.
   4960,   2.46744299,   32.0645943,           0.
   4961,   2.52574778,   43.4111061,           0.
   4962,   2.71578264,   32.9165115,           0.
   4963,   2.58330965,   35.0552254,           0.
   4964,   2.61788583,   41.0921555,           0.
   4965,   1.01221931,   29.3443279,           0.
   4966,   1.07607079,   37.7737503,           0.
   4967,    2.3914845,   29.5029755,           0.
   4968,   1.00077116,   42.8158264,           0.
   4969,   1.01405537,   34.3930321,           0.
   4970,   2.58461857,   38.1332245,           0.
   4971,   2.93281436,   39.5619087,           0.
   4972,   2.74257088,   46.6482353,           0.
   4973,   2.55126238,   30.7546673,           0.
   4974,   2.31129837,   39.8329391,           0.
   4975,   2.69520593,   31.2004814,           0.
   4976,   2.75529981,   33.3501625,           0.
   4977,   2.75482059,   32.5832214,           0.
   4978,   3.00646639,    40.864048,           0.
   4979,   2.52497482,    42.072525,           0.
   4980,   2.85497093,   43.8670692,           0.
   4981,   3.00783992,    35.583519,           0.
   4982,   3.28734446,   44.8027649,           0.
   4983,   3.49146652,   36.4584122,           0.
   4984,   1.55956316,   34.3854904,           0.
   4985,    1.4971137,   42.8256035,           0.
   4986,   3.07286215,   30.9163723,           0.
   4987,   3.48990726,    39.630867,           0.
   4988,   2.55193353,    37.699028,           0.
   4989,   2.32175994,   33.3119545,           0.
   4990,   3.20657873,   33.3038368,           0.
   4991,   2.02674222,    41.982872,           0.
   4992,   2.93395972,   41.5729904,           0.
   4993,   2.82690763,   40.0518265,           0.
   4994,   3.06570625,   31.4142704,           0.
   4995,   3.52482176,   36.0374298,           0.
   4996,   3.54304099,   44.4647751,           0.
   4997,   3.89007974,     37.26157,           0.
   4998,     3.687392,   45.0590286,           0.
   4999,   3.15459275,   34.7597656,           0.
   5000,   2.98018098,   43.3212395,           0.
   5001,   2.88215208,   42.1738167,           0.
   5002,   2.71624279,   33.8858681,           0.
   5003,   2.60119677,   42.7402611,           0.
   5004,   3.50834727,   41.7744865,           0.
   5005,   3.41862702,   34.3174858,           0.
   5006,   3.26714897,   42.9046593,           0.
   5007,   3.34540725,   30.6114254,           0.
   5008,   3.97437549,     39.16576,           0.
   5009,   2.33105755,   33.6752739,           0.
   5010,   1.36765063,   32.8980713,           0.
   5011,    1.4503907,   41.2876778,           0.
   5012,    2.2729733,   42.3169975,           0.
   5013,   3.50895119,   35.6164513,           0.
   5014,   3.41698527,   43.9211731,           0.
   5015,   3.93706441,   36.9318085,           0.
   5016,   3.44529295,   37.2389297,           0.
   5017,   3.94945526,   44.6957512,           0.
   5018,   2.19588709,    34.345768,           0.
   5019,   1.99760211,   42.8615074,           0.
   5020,   3.66254306,   41.3275185,           0.
   5021,   3.73790812,   34.7414093,           0.
   5022,   3.47400928,    32.849102,           0.
   5023,   3.94798326,    43.364212,           0.
   5024,   3.66353011,   30.9610958,           0.
   5025,   3.52304363,   38.7423286,           0.
   5026,   4.04023266,   39.6016846,           0.
   5027,   1.40096831,   40.8489304,           0.
   5028,   1.30855024,   32.4501953,           0.
   5029,   1.87870646,   33.3412476,           0.
   5030,   1.84620512,   41.6847992,           0.
   5031,   3.89706206,   37.5433159,           0.
   5032,   3.96861005,   37.8329544,           0.
   5033,    4.2810483,   37.7653313,           0.
   5034,   4.04966927,   41.8669014,           0.
   5035,   3.50311017,   40.7825775,           0.
   5036,   3.27060604,   32.4201164,           0.
   5037,   3.92101765,   33.6222191,           0.
   5038,   3.94109273,   42.8854065,           0.
   5039,   4.80834675,   37.1744728,           0.
   5040,   3.92500567,    34.160408,           0.
   5041,   3.99483895,   42.3713341,           0.
   5042,   3.61141801,   38.3895454,           0.
   5043,   4.60697985,   36.3495941,           0.
   5044,   4.84115982,   37.6337814,           0.
   5045,   4.30302858,   38.7973404,           0.
   5046,   4.47123575,   38.5233917,           0.
   5047,   4.58473921,   38.0784645,           0.
   5048,   4.43480349,   39.0737114,           0.
   5049,   4.52788544,   39.4689865,           0.
   5050,   4.91799879,   38.8254585,           0.
   5051,   3.96052408,    38.791008,           0.
   5052,    3.7595253,   44.1347351,           0.
   5053,   4.03032446,   35.5663147,           0.
   5054,   4.96405077,   36.5679855,           0.
   5055,   3.91398048,    43.781971,           0.
   5056,   3.65829802,   32.5571022,           0.
   5057,   3.91633105,   35.1481018,           0.
   5058,   3.81892204,   40.9441528,           0.
   5059,    1.4216249,   33.3818512,           0.
   5060,   1.45269978,   41.7513161,           0.
   5061,   5.66786337,   38.5474892,           0.
   5062,   0.99241221,   46.2158852,           0.
   5063,   3.49396348,   40.1443672,           0.
   5064,   3.35116577,   31.2220078,           0.
   5065,   3.28941512,   29.9494781,           0.
   5066,    3.5205915,   46.0383644,           0.
   5067,   4.50872993,   42.9576073,           0.
   5068,   4.48431969,   34.4013367,           0.
   5069,    5.0321517,   39.7274284,           0.
   5070,    5.3519268,   37.9092178,           0.
   5071,  0.972433567,   41.8087502,           0.
   5072,  0.943857431,   33.4019241,           0.
   5073,   3.07380342,   46.6707039,           0.
   5074,   1.57202291,   42.2792778,           0.
   5075,   1.49087715,   33.8847618,           0.
   5076,   4.32578325,   33.1856995,           0.
   5077,   4.54339123,   41.8820953,           0.
   5078,   4.88093042,   36.0427055,           0.
   5079,    3.6786778,   40.5031357,           0.
   5080,   3.85491467,   32.0876808,           0.
   5081,   4.60079813,   35.4241943,           0.
   5082,    4.3330431,    43.915451,           0.
   5083,   4.36958694,   40.8736382,           0.
   5084,   4.29588318,   32.4657097,           0.
   5085,   4.66125584,   39.8912544,           0.
   5086,   5.81068754,   36.6144829,           0.
   5087,   3.48198962,   35.2238884,           0.
   5088,   3.60962391,   43.7025414,           0.
   5089,   3.58347249,   46.6511269,           0.
   5090,   4.91222143,   41.9947243,           0.
   5091,   4.78847933,    34.119133,           0.
   5092,   5.35349655,   39.7308159,           0.
   5093,   5.89395714,   38.1195793,           0.
   5094,   4.65402746,   41.3336411,           0.
   5095,   4.74544382,   34.7332153,           0.
   5096,   4.66369438,   32.8120003,           0.
   5097,     5.031528,   43.0956154,           0.
   5098,   5.58756304,   37.0561028,           0.
   5099,   5.48320818,    38.949295,           0.
   5100,   3.25262713,   29.2674961,           0.
   5101,   4.83322382,   44.0955048,           0.
   5102,   5.80082321,   39.4878731,           0.
   5103,   4.70547628,   33.4868698,           0.
   5104,   5.81934786,   37.7253342,           0.
   5105,    5.1523695,   42.6006699,           0.
   5106,   6.23386049,   38.8173256,           0.
   5107,   4.64365864,   40.5608635,           0.
   5108,   4.62727642,   32.1084862,           0.
   5109,   4.93336678,   43.6017342,           0.
   5110,    6.1559453,   36.4171295,           0.
   5111,   4.99302721,   32.4561691,           0.
   5112,   5.10751772,   35.6954002,           0.
   5113,   5.11138916,   41.5780449,           0.
   5114,   5.10127831,    34.431076,           0.
   5115,   5.71186924,   39.8677635,           0.
   5116,   6.46699858,   39.3088455,           0.
   5117,    5.3261323,   40.5806351,           0.
   5118,   6.47972584,   36.1622925,           0.
   5119,   5.40719223,   35.3578415,           0.
   5120,   6.24641132,   38.3972816,           0.
   5121,   5.42740965,   34.1135445,           0.
   5122,   5.41070557,     41.79739,           0.
   5123,   5.86559868,   36.1415215,           0.
   5124,   6.96718788,   38.9673424,           0.
   5125,   5.63393736,   42.7101402,           0.
   5126,     5.026824,   33.1382484,           0.
   5127,    4.3003726,   31.0281391,           0.
   5128,   4.38820601,   44.9306946,           0.
   5129,   5.42635489,   43.7156982,           0.
   5130,   6.44492865,   37.8868866,           0.
   5131,   5.75634003,   40.8661079,           0.
   5132,   6.91763353,   39.4226532,           0.
   5133,   6.79995728,   37.3542519,           0.
   5134,   4.52839899,   45.5811768,           0.
   5135,   5.74797869,   33.7872086,           0.
   5136,   5.43437862,    41.241394,           0.
   5137,   5.74301004,    42.225544,           0.
   5138,   5.39363527,   33.4643822,           0.
   5139,     6.125669,   42.8030815,           0.
   5140,   7.09158373,   38.0557594,           0.
   5141,   5.41155195,   34.7378311,           0.
   5142,   5.78510427,   35.6233406,           0.
   5143,   4.28393555,    30.334774,           0.
   5144,   5.74532461,   35.0332642,           0.
   5145,   5.82892847,    41.653904,           0.
   5146,   5.75674295,   34.4180946,           0.
   5147,   5.98028326,   40.4393196,           0.
   5148,   7.11004686,   39.8442192,           0.
   5149,   7.15345097,   36.1595917,           0.
   5150,   6.08919907,   34.0988045,           0.
   5151,   6.95480442,   37.6921272,           0.
   5152,   7.32776165,   39.0731354,           0.
   5153,   6.09378433,   35.3184738,           0.
   5154,   7.20675564,   38.4280205,           0.
   5155,   6.50284719,    42.690834,           0.
   5156,   6.42328215,   34.4089546,           0.
   5157,   6.29022837,   41.8780899,           0.
   5158,   6.43971872,   40.6194649,           0.
   5159,   6.63279295,   40.0878448,           0.
   5160,   6.37390757,   32.4490356,           0.
   5161,   6.44185686,   35.5955696,           0.
   5162,   7.57856321,   39.6088486,           0.
   5163,   5.71540785,   33.1262436,           0.
   5164,   7.49205923,   37.4940071,           0.
   5165,   6.76266909,    42.900177,           0.
   5166,   5.32825613,   32.1038666,           0.
   5167,   6.73850727,   42.0117188,           0.
   5168,   6.16409302,   39.5941277,           0.
   5169,   6.14653301,   43.4452438,           0.
   5170,   7.72675943,   38.7333832,           0.
   5171,    7.5260458,   36.4429283,           0.
   5172,   6.85407448,    41.619278,           0.
   5173,   6.75941372,    34.094677,           0.
   5174,   6.75542879,   43.4752884,           0.
   5175,   6.41686296,   35.0147362,           0.
   5176,    6.7925601,   35.8752365,           0.
   5177,     7.711236,   39.1355782,           0.
   5178,   8.07294655,   37.3195763,           0.
   5179,   7.87862158,   36.0130463,           0.
   5180,   6.07227087,   33.4534874,           0.
   5181,   8.17955112,   38.2804413,           0.
   5182,   6.39937687,   33.1210098,           0.
   5183,   5.31404495,   31.4048767,           0.
   5184,   7.70569038,   40.0769272,           0.
   5185,   6.96103096,   40.3635635,           0.
   5186,   4.97363281,   31.7533455,           0.
   5187,   6.46036816,   41.5603943,           0.
   5188,   6.74809933,   34.7087708,           0.
   5189,   6.74633503,   35.2981873,           0.
   5190,   6.91990471,   40.7418785,           0.
   5191,   7.44485998,   40.7509575,           0.
   5192,   7.43261957,   33.4758568,           0.
   5193,   8.14104748,   37.8136063,           0.
   5194,   7.96680117,   36.7862473,           0.
   5195,   7.64046478,   35.5064926,           0.
   5196,   8.19455719,    38.731472,           0.
   5197,   8.11578655,   39.5836182,           0.
   5198,    7.0873909,   34.4059105,           0.
   5199,   8.20412064,   40.3377571,           0.
   5200,   8.68482876,    37.780407,           0.
   5201,    7.7959156,   40.9724731,           0.
   5202,   7.43183565,   34.1091652,           0.
   5203,   8.61282349,   39.6125793,           0.
   5204,   8.71252441,   38.7552795,           0.
   5205,   8.73265362,   36.7032547,           0.
   5206,   8.69863987,   39.2022057,           0.
   5207,   8.90587139,   40.1268463,           0.
   5208,   9.20583916,   38.2927437,           0.
   5209,    8.0728159,    40.826046,           0.
   5210,     7.954072,   35.5897903,           0.
   5211,   7.88631964,   35.2955589,           0.
   5212,   7.34204435,   41.7417374,           0.
   5213,   7.67838812,   42.3746758,           0.
   5214,   8.79115486,   35.9740601,           0.
   5215,   9.09932518,   39.7575607,           0.
   5216,   9.26299953,   38.7740402,           0.
   5217,   8.95323944,   40.6975136,           0.
   5218,    8.2558918,   41.2024002,           0.
   5219,   7.35936213,   35.2754478,           0.
   5220,   9.24048805,   37.7755203,           0.
   5221,   9.47487354,   35.7137337,           0.
   5222,   8.87593555,   41.3121338,           0.
   5223,   9.25800323,   36.8373718,           0.
   5224,   8.27348518,   35.1310883,           0.
   5225,   9.81679153,   38.7033806,           0.
   5226,   9.96004772,   39.1154442,           0.
   5227,   9.53417397,   36.4120293,           0.
   5228,   10.1367435,   38.1454048,           0.
   5229,   9.91094875,   37.7867622,           0.
   5230,   8.43647671,   34.5247536,           0.
   5231,   10.2729292,   36.9575882,           0.
   5232,   10.3756075,   38.5653419,           0.
   5233,   10.2567167,   37.5568619,           0.
   5234,   9.88696671,   40.3025131,           0.
   5235,  0.574927211,   49.8019867,           0.
   5236,   1.52759349,   48.7951813,           0.
   5237,   11.9763231,   38.0996704,           0.
   5238,   1.86339033,   48.4669113,           0.
   5239,   0.69748348,   49.2486153,           0.
   5240,   1.04083502,   27.4333115,           0.
   5241,   10.8347912,    38.323925,           0.
   5242,   10.6023359,   37.2900124,           0.
   5243,   1.07441807,   47.7095413,           0.
   5244,   1.39899135,   47.5901604,           0.
   5245,   9.97043419,   37.2498322,           0.
   5246,   1.53638053,   29.7014427,           0.
   5247,   1.62874079,   30.0640583,           0.
   5248,   8.56972408,    36.339283,           0.
   5249,     8.194767,    36.277195,           0.
   5250,    9.7666111,   39.6914062,           0.
   5251,   1.39313614,   30.9151402,           0.
   5252,    1.2505486,   31.6332741,           0.
   5253,   1.63697255,   38.1022148,           0.
   5254,    1.6951946,   38.4494629,           0.
   5255,   1.47141838,   39.2545738,           0.
   5256,   1.33871102,   40.0185242,           0.
   5257,   1.54430711,   46.4563866,           0.
   5258,   7.67286348,   35.0115623,           0.
   5259,   6.87061167,   41.1932411,           0.
   5260,   2.01856685,   46.5185432,           0.
   5261,   9.68028927,   38.2879333,           0.
   5262,   1.68496406,   45.9217072,           0.
   5263,   6.59914541,   42.3808594,           0.
   5264,   9.65485382,   37.5152893,           0.
   5265,    9.4866724,   37.2672005,           0.
   5266,   5.94097948,   43.1622009,           0.
   5267,    3.1167171,   45.7961426,           0.
   5268,   1.92139721,    29.687273,           0.
   5269,   4.26776934,   31.7369766,           0.
   5270,   1.76791048,   44.6632309,           0.
   5271,   2.31849074,   45.2448769,           0.
   5272,   1.67932701,   40.4083481,           0.
   5273,   1.80710566,   31.0708466,           0.
   5274,   1.65866673,   31.7456341,           0.
   5275,   1.82034838,   32.3599396,           0.
   5276,   1.83677733,   32.8684845,           0.
   5277,    2.0645833,   37.6981316,           0.
   5278,   2.07952952,   38.5024948,           0.
   5279,   7.06059599,   34.9985428,           0.
   5280,   8.39247894,   40.6552925,           0.
   5281,   8.68847084,   40.4351845,           0.
   5282,   2.22401047,   29.7240314,           0.
   5283,   2.34766555,   30.0095234,           0.
   5284,   9.15013409,   37.2812347,           0.
   5285,   8.53186226,   39.9768639,           0.
   5286,   2.28434086,    44.568676,           0.
   5287,   2.39959002,   41.7206383,           0.
   5288,   7.85505867,   40.4873352,           0.
   5289,   7.08125687,   36.7760277,           0.
   5290,   6.79094744,   36.4612122,           0.
   5291,   2.03860259,   31.9203281,           0.
   5292,   3.50734282,   43.3914909,           0.
   5293,   2.48642111,   39.0059128,           0.
   5294,   2.71672773,   34.6104202,           0.
   5295,   7.07977486,   35.5714798,           0.
   5296,   3.00582075,   45.1589928,           0.
   5297,   2.93249536,   34.2660408,           0.
   5298,     8.125597,   39.9792633,           0.
   5299,   7.68417406,   38.3278198,           0.
   5300,   2.59862471,   31.6570015,           0.
   5301,   3.58865905,   31.6025562,           0.
   5302,   3.64853001,   33.1641884,           0.
   5303,   1.95182729,   40.7131767,           0.
   5304,   2.85280228,   30.6597767,           0.
   5305,   3.17548609,   43.6204414,           0.
   5306,   3.04724503,   35.1655769,           0.
   5307,   2.98507047,   37.2542725,           0.
   5308,   6.61366081,   37.0308266,           0.
   5309,   6.39619446,   36.7155266,           0.
   5310,   3.40755033,   32.1115112,           0.
   5311,   5.56088448,   40.2329636,           0.
   5312,    6.5499649,   39.6094818,           0.
   5313,   2.97372818,   36.8419342,           0.
   5314,   2.88965178,   40.5317726,           0.
   5315,   2.89898849,   32.2192993,           0.
   5316,    4.2794075,   34.1234245,           0.
   5317,   6.63746548,   39.1240273,           0.
   5318,    5.9125886,   39.1318588,           0.
   5319,   4.10443306,   41.0775528,           0.
   5320,   6.30374765,   37.5603104,           0.
   5321,    5.9870348,   36.9165306,           0.
   5322,   3.48301363,   37.5923195,           0.
   5323,   3.58506393,   37.9152985,           0.
   5324,   5.40021658,   39.3640594,           0.
   5325,    3.7381041,     38.15242,           0.
   5326,   7.31637335,   38.7794304,           0.
   5327,   4.94806767,   40.2687149,           0.
   5328,   4.34867859,   34.9825096,           0.
   5329,   6.76143837,   38.5974312,           0.
   5330,   4.01514101,   40.5900383,           0.
   5331,   5.70676947,    37.391037,           0.
   5332,   5.45117044,   36.7157402,           0.
   5333,   5.67035627,   36.3581352,           0.
   5334,   5.28838158,   36.3164482,           0.
   5335,   4.03586245,   38.4571762,           0.
   5336,   4.45100641,    36.690033,           0.
   5337,   4.00625801,   36.5322075,           0.
   5338,   4.54425907,   35.8308334,           0.
   5339,   5.28113079,   37.5031509,           0.
   5340,   5.12898922,    36.825489,           0.
   5341,   4.29319763,   37.4516144,           0.
   5342,   4.82891989,   36.8265839,           0.
   5343,   24.5651264,   27.4440937,           0.
   5344,   21.4572105,    30.722208,           0.
   5345,    15.225585,   37.0836678,           0.
   5346,   24.1855583,   38.2252121,           0.
   5347,   23.4264374,   38.2190704,           0.
   5348,    21.935688,   38.2421417,           0.
   5349,   20.9694653,   38.0600662,           0.
   5350,   19.8429165,   37.9260063,           0.
   5351,   18.9377956,   37.8711548,           0.
   5352,   17.6909161,    37.694397,           0.
   5353,   16.8971939,   38.0932961,           0.
   5354,   16.1786613,   38.2296066,           0.
   5355,   15.1792612,   37.8026009,           0.
   5356,   14.1061916,   38.1277771,           0.
   5357,   16.0698433,   37.1174698,           0.
   5358,   17.1018124,   37.0290222,           0.
   5359,   18.0081081,   36.9324608,           0.
   5360,   19.9976997,   37.0247002,           0.
   5361,   21.0044441,   36.9984894,           0.
   5362,   22.1383553,   37.2299919,           0.
   5363,   23.4297199,   37.0699844,           0.
   5364,   24.4568024,   36.7358437,           0.
   5365,   17.0065365,   35.9614296,           0.
   5366,   18.1527386,   36.1324348,           0.
   5367,   19.2651443,   36.0585632,           0.
   5368,    20.298687,   36.0446701,           0.
   5369,   21.2065907,   35.9192505,           0.
   5370,    22.625145,   35.5319214,           0.
   5371,   23.5704765,   35.8520851,           0.
   5372,   24.4874153,   35.8606567,           0.
   5373,   17.2896976,   34.9156723,           0.
   5374,   17.9825611,   34.9188766,           0.
   5375,   19.2843418,   35.0991516,           0.
   5376,   20.3054237,   34.7480965,           0.
   5377,   21.1918297,   34.9302063,           0.
   5378,   22.2875614,   35.2856865,           0.
   5379,   23.2412968,   35.0360756,           0.
   5380,   24.2988834,   34.8926888,           0.
   5381,   19.0447884,   33.9397545,           0.
   5382,   21.1459999,    33.419426,           0.
   5383,   22.2417259,   34.2086983,           0.
   5384,   23.4325809,   33.8641014,           0.
   5385,   24.3090878,   33.8292923,           0.
   5386,   19.3535728,   32.8292503,           0.
   5387,   20.0066185,   32.8046341,           0.
   5388,   21.2567062,   32.8098221,           0.
   5389,   22.3757324,   33.0334015,           0.
   5390,   23.0643826,   32.6743507,           0.
   5391,   24.4460506,   32.8068352,           0.
   5392,   20.3914928,     31.75881,           0.
   5393,   21.3493443,    32.143116,           0.
   5394,   22.4088974,   31.9360771,           0.
   5395,   23.4931049,    31.778616,           0.
   5396,   24.4811516,   31.8624611,           0.
   5397,   22.1339779,   30.7578869,           0.
   5398,   23.6493587,   30.9513721,           0.
   5399,   24.4983597,   30.9206829,           0.
   5400,   22.4637871,   29.6542683,           0.
   5401,   23.4324226,   29.2909431,           0.
   5402,   24.3971062,   29.5150814,           0.
   5403,   23.3500271,   28.6677971,           0.
   5404,   24.7524662,   28.4188213,           0.
   5405,   24.5872593,   39.3819656,           0.
   5406,   23.4231071,   39.3124275,           0.
   5407,   22.2207527,   39.3010216,           0.
   5408,   21.2494144,   39.1064568,           0.
   5409,   20.0278835,    39.294754,           0.
   5410,   19.0170517,   39.3029022,           0.
   5411,   17.9573269,   39.2167397,           0.
   5412,   17.2838993,   39.2086678,           0.
   5413,   15.8603783,   39.2126274,           0.
   5414,   15.1576738,   39.1989594,           0.
   5415,   24.4802227,   40.2637405,           0.
   5416,   23.2230949,   40.1341743,           0.
   5417,   22.6399479,    40.159008,           0.
   5418,   21.2886734,   40.3111801,           0.
   5419,   20.2733803,   40.2955322,           0.
   5420,   19.2002163,    40.238327,           0.
   5421,   18.2492886,   40.3375854,           0.
   5422,   16.8922558,   40.2457428,           0.
   5423,   15.8603535,   39.9032059,           0.
   5424,   24.1665077,   41.2918358,           0.
   5425,   23.3197765,   41.1931725,           0.
   5426,   22.2525806,   41.3250237,           0.
   5427,    21.375206,   41.4061508,           0.
   5428,   20.0974216,    41.388279,           0.
   5429,   19.2912979,   41.1273956,           0.
   5430,   18.3444958,   41.3219032,           0.
   5431,   17.1729908,   41.2560158,           0.
   5432,   24.3534698,   42.3725853,           0.
   5433,     23.35215,   42.1266441,           0.
   5434,    22.409996,   42.2893143,           0.
   5435,   21.0647297,   42.4408684,           0.
   5436,   19.9719028,   42.2702789,           0.
   5437,   19.0581741,   42.6655312,           0.
   5438,   18.3004742,   42.2743683,           0.
   5439,   24.2748795,   43.4263153,           0.
   5440,   23.4089184,   43.6613121,           0.
   5441,   22.7412853,   43.4774895,           0.
   5442,   21.1267319,   43.1453552,           0.
   5443,   20.1072845,   43.5243416,           0.
   5444,   19.1010838,   43.2296028,           0.
   5445,     24.58564,   44.3281136,           0.
   5446,   23.2783661,   44.4788322,           0.
   5447,    22.095129,   44.6170654,           0.
   5448,   21.2315426,   44.5452232,           0.
   5449,    20.488615,   44.5218773,           0.
   5450,   24.5890312,   45.1630554,           0.
   5451,   23.3979988,    45.630661,           0.
   5452,   22.3671074,   46.1116295,           0.
   5453,   21.4822159,   45.6158676,           0.
   5454,   24.3014984,   46.4328651,           0.
   5455,   23.4351559,   46.9644279,           0.
   5456,   22.4064999,   46.7043457,           0.
   5457,   24.4951248,   47.8655891,           0.
   5458,   23.4787979,   47.6612854,           0.
   5459,   24.6589699,   48.8271294,           0.
   5460,   24.8810215,   34.8764877,           0.
   5461,   24.8293934,   41.3327713,           0.
   5462,   24.9944496,   45.2619972,           0.
   5463,   24.9821262,   49.5336456,           0.
   5464,   24.8789577,   46.8211555,           0.
   5465,   24.8739548,   42.8660774,           0.
   5466,   24.9679394,   38.8992119,           0.
   5467,   24.8505344,   37.3158836,           0.
   5468,   25.0797234,   28.3940163,           0.
   5469,   24.8813801,   29.3466949,           0.
   5470,   25.0222378,   27.4139404,           0.
   5471,   25.2152405,   26.4325638,           0.
   5472,   24.9536018,    30.903347,           0.
   5473,   24.9497967,    31.877903,           0.
   5474,    24.925066,   32.8540306,           0.
   5475,   24.8729515,   33.8600121,           0.
   5476,   24.9448872,   35.8598175,           0.
   5477,   24.9200821,    36.821003,           0.
   5478,   24.7040367,   37.8724861,           0.
   5479,   24.9923363,   39.3739815,           0.
   5480,    24.936821,   40.3327866,           0.
   5481,   24.8671093,   42.3559265,           0.
   5482,   24.8851852,   43.3586845,           0.
   5483,   24.9926777,    44.321167,           0.
   5484,   24.7860985,   46.2466812,           0.
   5485,   24.9567719,   47.8328285,           0.
   5486,   25.0112572,   48.8575287,           0.
   5487,   24.9930573,   48.3294487,           0.
   5488,   24.9241047,    47.333786,           0.
   5489,   24.9362221,   45.7354164,           0.
   5490,   25.0082855,   44.7935219,           0.
   5491,   24.9471436,   43.8365936,           0.
   5492,   24.8446274,   41.8422775,           0.
   5493,   24.8794136,   40.8308716,           0.
   5494,   24.9770031,   39.8484879,           0.
   5495,   24.8772755,   38.4155502,           0.
   5496,   24.9469261,   36.3400383,           0.
   5497,    24.918932,   35.3713036,           0.
   5498,   24.8806725,   34.3764992,           0.
   5499,   24.9002972,    33.353508,           0.
   5500,   24.9407196,   32.3642273,           0.
   5501,   24.9550743,   31.3924236,           0.
   5502,   24.9459476,   30.4097309,           0.
   5503,   24.9280529,   29.9068775,           0.
   5504,   25.0612354,   28.8527317,           0.
   5505,    25.048317,   27.9173698,           0.
   5506,   25.0377884,   26.8443565,           0.
   5507,   14.1170216,   37.4192238,           0.
   5508,   19.7261486,   31.7615204,           0.
   5509,    21.479763,   30.0050983,           0.
   5510,   22.8246174,   28.6012535,           0.
   5511,   24.5284595,   26.7376957,           0.
   5512,   25.1245232,   26.1261597,           0.
   5513,   20.4332275,   31.0565929,           0.
   5514,    15.551405,   35.9941216,           0.
   5515,   17.6364155,   33.8761826,           0.
   5516,   18.3345318,   33.1806183,           0.
   5517,   20.7859325,   30.7061005,           0.
   5518,   21.8222065,   29.6525326,           0.
   5519,   22.4992161,   28.9418087,           0.
   5520,    24.150692,   27.7253208,           0.
   5521,   24.5715694,   49.3242607,           0.
   5522,   23.9037704,   48.7215691,           0.
   5523,   23.5914211,   48.3451385,           0.
   5524,   22.8605347,   47.6688309,           0.
   5525,   21.4719219,   46.2793846,           0.
   5526,    20.811924,   45.5583725,           0.
   5527,   19.7687798,   44.5054741,           0.
   5528,   18.4426041,   42.9989052,           0.
   5529,   17.3103294,   41.9412842,           0.
   5530,   16.2021236,   40.9464684,           0.
   5531,    15.514245,   40.2454796,           0.
   5532,   14.4595594,   39.1846581,           0.
   5533,   16.5882702,   34.9246483,           0.
   5534,   14.4824886,   37.0685501,           0.
   5535,   15.2050352,   36.3585167,           0.
   5536,   16.2440262,   35.2745438,           0.
   5537,   16.5435982,   41.2909698,           0.
   5538,   14.1071196,    38.829113,           0.
   5539,   17.2854633,   34.2241592,           0.
   5540,   18.7356663,   43.4676895,           0.
   5541,   22.5014992,   47.3346519,           0.
   5542,   18.6804352,   32.8292122,           0.
   5543,   19.3749599,   32.1171036,           0.
   5544,   25.2282333,   50.0367165,           0.
   5545,   20.4730968,   45.2030373,           0.
   5546,   17.6427345,    42.357132,           0.
   5547,   23.4705238,   28.0733013,           0.
   5548,   19.4143295,   44.1645889,           0.
   5549,   21.8045387,   46.6398354,           0.
   5550,   15.1643019,   39.8925362,           0.
   5551,   24.3453751,   42.8781433,           0.
   5552,   24.5111732,   45.5450058,           0.
   5553,    24.570343,   38.9727211,           0.
   5554,   24.8040562,    28.755476,           0.
   5555,   24.3576927,   37.1623497,           0.
   5556,    24.487608,   30.4401722,           0.
   5557,   24.4557819,   47.3639832,           0.
   5558,   24.2027302,   49.0687294,           0.
   5559,    18.877121,   42.9643745,           0.
   5560,   22.7583599,   47.0261574,           0.
   5561,   14.4551792,   38.4854507,           0.
   5562,    16.617239,   35.6108131,           0.
   5563,   19.7658653,   43.8524437,           0.
   5564,    20.747963,   31.4129505,           0.
   5565,   22.7877693,   29.2992973,           0.
   5566,   23.8032265,   27.9363995,           0.
   5567,   21.7952023,    30.375021,           0.
   5568,   15.5114164,   39.5529404,           0.
   5569,   21.7814941,   45.9952431,           0.
   5570,   19.6915741,   32.4668236,           0.
   5571,   20.8452854,   44.8775368,           0.
   5572,   15.6049566,    36.723217,           0.
   5573,   18.6796932,   33.5503769,           0.
   5574,   17.7000713,    41.763134,           0.
   5575,   16.5365906,   40.5981445,           0.
   5576,   24.2368793,   27.0977955,           0.
   5577,   24.5511055,    39.809864,           0.
   5578,   24.4921188,   36.2995644,           0.
   5579,   24.5932007,   48.3516464,           0.
   5580,   24.6784935,   27.9763432,           0.
   5581,   24.4956264,   31.3949146,           0.
   5582,   24.6030846,    44.748848,           0.
   5583,   23.7554703,   37.3089409,           0.
   5584,   24.0107803,   47.3816795,           0.
   5585,   24.1175919,    28.698391,           0.
   5586,   24.0338497,   30.4728355,           0.
   5587,   23.9918041,   45.5908966,           0.
   5588,   24.0507526,   38.8310204,           0.
   5589,   24.1342335,    39.735939,           0.
   5590,   24.0471802,   36.2557526,           0.
   5591,   24.0343781,   31.3902435,           0.
   5592,   24.2145329,   45.0827675,           0.
   5593,   24.3119297,   28.1289845,           0.
   5594,   23.8731117,   42.8244629,           0.
   5595,   24.2094574,   48.4510536,           0.
   5596,   23.5742836,   36.8443947,           0.
   5597,   23.9619045,   47.9481354,           0.
   5598,   24.0563774,   30.9394264,           0.
   5599,   23.6610584,   45.3345337,           0.
   5600,    24.188776,   39.3460312,           0.
   5601,   24.0591564,   40.1475258,           0.
   5602,   24.0379257,   35.8624382,           0.
   5603,   24.0035095,   31.8336811,           0.
   5604,   23.7140026,   44.7085648,           0.
   5605,   23.8856487,   42.3958893,           0.
   5606,   23.4590187,   37.6012878,           0.
   5607,    23.611496,   30.5174122,           0.
   5608,   23.8360748,   45.8211823,           0.
   5609,   23.4400635,   38.8351593,           0.
   5610,    23.689682,   40.0173531,           0.
   5611,   23.9146881,   40.5534515,           0.
   5612,   24.0210209,   35.4783249,           0.
   5613,   23.3407211,    36.543972,           0.
   5614,   23.9841213,   32.2862015,           0.
   5615,   23.5719681,   31.3551388,           0.
   5616,   23.3889484,   45.0029221,           0.
   5617,    24.204174,   44.0161362,           0.
   5618,   23.2233124,   48.0079231,           0.
   5619,   23.4751759,   42.4381828,           0.
   5620,   23.8009415,   41.9767227,           0.
   5621,   23.6489029,   47.3531151,           0.
   5622,   23.3648281,   43.0294189,           0.
   5623,   23.0891876,   31.2082539,           0.
   5624,    23.312746,   39.6321754,           0.
   5625,   22.8222351,   38.9592857,           0.
   5626,   23.4458904,   46.0847702,           0.
   5627,   23.0589561,   30.3262901,           0.
   5628,   22.7836876,   37.5024185,           0.
   5629,   23.8201199,   37.9033241,           0.
   5630,   23.9958115,   30.0263233,           0.
   5631,   24.1055355,   46.0494804,           0.
   5632,   23.7707634,   38.5320435,           0.
   5633,   24.2946205,    41.863884,           0.
   5634,   24.4468536,   35.4057159,           0.
   5635,   24.5086994,   43.8921852,           0.
   5636,   24.4670181,   32.3299294,           0.
   5637,   24.3627529,   40.7435989,           0.
   5638,   23.3353977,   40.6084251,           0.
   5639,   23.5899849,   35.4673729,           0.
   5640,   23.4916553,   32.2375679,           0.
   5641,   23.3670979,   44.1576157,           0.
   5642,    23.734396,   43.2386894,           0.
   5643,   23.1816902,   41.7890015,           0.
   5644,   23.9364567,    46.923233,           0.
   5645,   23.1259575,   47.3354416,           0.
   5646,   24.1633778,   37.5585403,           0.
   5647,   24.3479042,   45.8504486,           0.
   5648,   22.9060173,   42.3496628,           0.
   5649,   22.6985302,   39.4581947,           0.
   5650,    22.994873,    45.750164,           0.
   5651,   22.7535515,   30.6855812,           0.
   5652,   22.5561066,   37.0850105,           0.
   5653,   23.6834488,   40.9150925,           0.
   5654,   23.5003567,    32.692234,           0.
   5655,   23.9175472,    43.836441,           0.
   5656,   23.0439358,   40.3983421,           0.
   5657,   22.9049473,   31.6881561,           0.
   5658,   24.2548599,   29.0972309,           0.
   5659,   22.9844532,   40.7915802,           0.
   5660,   23.1718788,   35.4129219,           0.
   5661,   23.0199776,   32.2346535,           0.
   5662,   22.8986816,   43.8069878,           0.
   5663,   22.9813213,   46.7206497,           0.
   5664,   23.9691219,     28.30583,           0.
   5665,   23.8052769,   28.8369713,           0.
   5666,    24.580162,   28.9396267,           0.
   5667,   22.8046646,   42.8561592,           0.
   5668,   22.8486538,   41.9894028,           0.
   5669,   23.9379368,   33.1898308,           0.
   5670,   23.6236553,   41.5659065,           0.
   5671,    22.371666,   38.8015404,           0.
   5672,   22.6467266,    46.444809,           0.
   5673,    23.087471,   45.2036285,           0.
   5674,   22.4388561,   30.3798237,           0.
   5675,   22.3438091,   37.6888046,           0.
   5676,   23.2232704,   36.7693062,           0.
   5677,   24.4002914,   46.8800468,           0.
   5678,   22.4838505,    39.778347,           0.
   5679,   22.5575485,   31.1683617,           0.
   5680,   23.0387039,   35.8448143,           0.
   5681,   22.8954811,   44.2672997,           0.
   5682,   22.6869526,   32.6933174,           0.
   5683,   22.9386959,   35.0199585,           0.
   5684,   22.4498672,   40.8739662,           0.
   5685,   23.1497555,   28.2922916,           0.
   5686,   24.4244213,   38.5879364,           0.
   5687,   22.4491005,   41.7952461,           0.
   5688,   24.4075851,   33.2940598,           0.
   5689,   22.5581989,   38.2373047,           0.
   5690,   22.7875977,   45.3900719,           0.
   5691,   22.7719173,   30.0021057,           0.
   5692,   22.3831959,   36.6631966,           0.
   5693,   23.0831184,    28.959547,           0.
   5694,   23.2008686,   36.2797737,           0.
   5695,   23.1460896,   44.7338371,           0.
   5696,   22.3428383,   44.1266899,           0.
   5697,   23.0644779,    33.092701,           0.
   5698,   22.8023643,    34.763401,           0.
   5699,   22.8013744,   35.2526436,           0.
   5700,   22.6563873,   41.1265106,           0.
   5701,    22.615736,   32.3503151,           0.
   5702,   22.5542793,   40.5802727,           0.
   5703,   22.1366901,   42.8471375,           0.
   5704,    22.130743,    31.507719,           0.
   5705,   22.1313934,   39.7422485,           0.
   5706,   23.4838028,   33.1189232,           0.
   5707,   23.8594227,   33.5755539,           0.
   5708,   21.9491539,   36.7830124,           0.
   5709,   22.2298889,   45.1403084,           0.
   5710,   23.0984077,   34.2954102,           0.
   5711,   22.5019779,   35.0023956,           0.
   5712,    21.881218,   41.8675957,           0.
   5713,   21.8474407,   42.3682327,           0.
   5714,   22.7542286,   44.7643776,           0.
   5715,   22.6255379,   36.1025009,           0.
   5716,    22.187151,   40.1401291,           0.
   5717,   21.7296848,   31.8282948,           0.
   5718,   21.7396755,   39.2209053,           0.
   5719,   21.7927685,   31.1039982,           0.
   5720,   22.6853428,   33.0749054,           0.
   5721,   23.0830364,    43.263382,           0.
   5722,   21.8117523,   43.1418762,           0.
   5723,   22.5955811,   34.3784485,           0.
   5724,    23.040226,   33.4888496,           0.
   5725,   22.2081337,   34.7171936,           0.
   5726,   22.1403027,   33.3681946,           0.
   5727,   21.6678467,   37.3510551,           0.
   5728,   22.1045246,   45.7483482,           0.
   5729,   23.0417767,   33.8905067,           0.
   5730,   23.7368164,    34.641922,           0.
   5731,   21.4572029,   42.7667046,           0.
   5732,   22.1546764,   40.5190544,           0.
   5733,   22.0077744,   32.2306786,           0.
   5734,   21.6193352,   39.7884102,           0.
   5735,   21.8612804,    38.716095,           0.
   5736,   21.4248962,   31.4415836,           0.
   5737,   22.1626186,   43.4763641,           0.
   5738,   21.8045158,   41.3923492,           0.
   5739,   23.4460697,   33.5021286,           0.
   5740,   21.8438988,   35.0740623,           0.
   5741,   21.8750973,   32.9270973,           0.
   5742,   21.4927502,   36.8955803,           0.
   5743,   21.8615856,   37.7800255,           0.
   5744,   21.8453979,   45.3461761,           0.
   5745,   23.9857101,   35.1499672,           0.
   5746,   23.5297699,   34.2222557,           0.
   5747,   21.8937263,   43.8325882,           0.
   5748,   21.3783112,   41.9801407,           0.
   5749,   21.7445507,   40.4625702,           0.
   5750,   21.4993134,    43.488945,           0.
   5751,   21.6017284,   44.2039375,           0.
   5752,   21.1867104,   43.8416862,           0.
   5753,   21.4277554,   38.2014999,           0.
   5754,   21.6236477,   32.5246201,           0.
   5755,   21.7447586,   40.9120255,           0.
   5756,   20.8689709,   38.5192375,           0.
   5757,   20.9855843,   32.4567909,           0.
   5758,   21.3391209,   40.8817444,           0.
   5759,   21.9504547,   34.3884773,           0.
   5760,   21.8878517,   35.4817543,           0.
   5761,   21.4979534,   33.1812897,           0.
   5762,   21.1276798,   37.5448151,           0.
   5763,   20.8521996,   41.7842979,           0.
   5764,    24.007246,   34.3585892,           0.
   5765,    21.479393,   37.8565903,           0.
   5766,   20.5143356,   37.5093117,           0.
   5767,    20.802927,    43.503109,           0.
   5768,   22.2804451,   32.6490631,           0.
   5769,   22.1431389,   40.9106827,           0.
   5770,   20.7439537,    38.983963,           0.
   5771,   21.0560436,   31.7744102,           0.
   5772,   20.8114014,    40.463398,           0.
   5773,   21.6875629,   33.5705452,           0.
   5774,   24.3841782,   34.3795967,           0.
   5775,   21.5837135,   44.9344101,           0.
   5776,    20.634552,   42.1759796,           0.
   5777,   20.5831585,   41.2399445,           0.
   5778,   21.4331322,   35.3109932,           0.
   5779,   21.6592369,   35.7717552,           0.
   5780,   21.0574875,   35.4842224,           0.
   5781,    20.481514,   37.0247002,           0.
   5782,   20.7483425,   42.8303032,           0.
   5783,   20.4715595,   43.8468132,           0.
   5784,   20.2496357,   38.8345718,           0.
   5785,   21.1224365,   39.5715141,           0.
   5786,   20.6947937,   32.1082153,           0.
   5787,   20.2787724,   41.0699158,           0.
   5788,   20.4369354,   41.5933304,           0.
   5789,    20.870388,   34.6645355,           0.
   5790,   20.0056896,   37.4675636,           0.
   5791,   20.8797016,   36.4908791,           0.
   5792,   20.4312668,   43.1864319,           0.
   5793,   20.8478012,   44.1865005,           0.
   5794,   20.6378651,   32.7784691,           0.
   5795,     20.35882,   42.5421944,           0.
   5796,   20.5365524,   39.9826965,           0.
   5797,   20.0623932,   42.8867302,           0.
   5798,   20.6100883,    33.400425,           0.
   5799,   20.6019802,   35.0429077,           0.
   5800,   21.1452827,   34.3406601,           0.
   5801,   20.6090584,   39.4509659,           0.
   5802,   20.3944035,    36.532505,           0.
   5803,   20.4535542,   37.9615974,           0.
   5804,   19.9980965,   39.8153725,           0.
   5805,   20.3983059,   38.3999481,           0.
   5806,   20.7591972,   36.0016861,           0.
   5807,   19.9087963,   36.5557899,           0.
   5808,   20.9117928,   33.0902977,           0.
   5809,   20.9850483,    39.941494,           0.
   5810,   20.6537781,   35.5342102,           0.
   5811,   20.5427418,   34.3884583,           0.
   5812,   19.6933804,   42.6023636,           0.
   5813,    19.842495,   40.2486038,           0.
   5814,   19.7526512,   43.2169876,           0.
   5815,   19.5169716,   39.3609276,           0.
   5816,   20.8413048,   33.9810219,           0.
   5817,   19.9285889,   34.5447083,           0.
   5818,   19.5748596,   37.0557861,           0.
   5819,   19.5984097,   42.0028801,           0.
   5820,   19.9715309,   40.6834297,           0.
   5821,   19.5847912,    38.974411,           0.
   5822,   19.5110512,   39.8561516,           0.
   5823,   20.8615017,   33.5921745,           0.
   5824,   20.3915367,   33.7559509,           0.
   5825,   19.7126369,    34.954731,           0.
   5826,   19.6624241,   37.3813438,           0.
   5827,   19.4460583,   36.6133347,           0.
   5828,    20.026947,   40.9704895,           0.
   5829,    19.428957,   40.5331078,           0.
   5830,   19.6179714,    40.866539,           0.
   5831,   19.0608521,   40.8124542,           0.
   5832,   19.4648151,   34.3856277,           0.
   5833,    20.195879,   35.0802841,           0.
   5834,    19.813446,   36.0547943,           0.
   5835,   19.2112637,   37.2027779,           0.
   5836,   20.0309105,   33.4863815,           0.
   5837,   18.7594357,   37.0293922,           0.
   5838,   18.6496086,   40.1604691,           0.
   5839,   19.7525711,   33.8927689,           0.
   5840,   19.5505886,   41.4218903,           0.
   5841,   19.3533688,     35.53088,           0.
   5842,   19.7742081,   35.5353508,           0.
   5843,    18.689827,   35.7327271,           0.
   5844,   18.4290848,    36.974102,           0.
   5845,   18.4723816,   40.7211914,           0.
   5846,   19.0176773,    39.734623,           0.
   5847,   19.2516861,   41.7278214,           0.
   5848,   19.3713436,   33.5589027,           0.
   5849,   18.6613731,   34.9748993,           0.
   5850,   18.4504623,   37.3541985,           0.
   5851,   18.9889164,   36.7562103,           0.
   5852,   18.5625153,   39.7916374,           0.
   5853,   18.7028427,   41.0807838,           0.
   5854,   19.6869011,   33.1733284,           0.
   5855,   18.9502983,   41.4313126,           0.
   5856,   18.1705875,   39.4834099,           0.
   5857,   18.0325279,    39.887249,           0.
   5858,   19.0280704,   34.6760178,           0.
   5859,   18.3304691,   35.2779732,           0.
   5860,   18.4824009,   37.6906013,           0.
   5861,   18.4992867,   36.6111984,           0.
   5862,   18.9447346,   42.0736313,           0.
   5863,   18.5350933,   38.2682648,           0.
   5864,   18.5789528,   36.2133026,           0.
   5865,   18.0319805,    36.512764,           0.
   5866,    17.588541,   40.2399559,           0.
   5867,   18.3276997,   34.5952339,           0.
   5868,   18.2706795,   35.8144073,           0.
   5869,     18.55373,   41.7838249,           0.
   5870,   18.3954067,   38.9718094,           0.
   5871,   19.0264339,   32.4739075,           0.
   5872,   18.6887455,   34.2709274,           0.
   5873,   18.9761181,   38.7506371,           0.
   5874,   17.5464897,   36.9255447,           0.
   5875,   17.2629509,   39.8971634,           0.
   5876,   17.8594303,   40.6011505,           0.
   5877,   19.0174046,   33.1946869,           0.
   5878,   17.9557571,   42.0560951,           0.
   5879,   18.0908947,   38.5808334,           0.
   5880,   19.3628483,   38.2953415,           0.
   5881,   18.0492954,   37.3654442,           0.
   5882,    17.448637,   36.3837967,           0.
   5883,   17.6624165,   38.8828125,           0.
   5884,   17.2068386,   40.5833511,           0.
   5885,   18.0091991,    42.681675,           0.
   5886,   17.4996758,     40.90942,           0.
   5887,   17.7144241,   35.9258614,           0.
   5888,   18.6764641,     42.48349,           0.
   5889,   17.6212635,   39.5544395,           0.
   5890,   17.7175102,   38.2211037,           0.
   5891,   17.6312141,   37.3581123,           0.
   5892,   19.7878876,   38.6132698,           0.
   5893,   17.9943523,   35.5575638,           0.
   5894,   17.3833389,   37.8752518,           0.
   5895,   17.2092609,   37.4528885,           0.
   5896,   17.3048153,   38.5204849,           0.
   5897,   18.1055565,   37.8702049,           0.
   5898,   17.3238735,   35.6094131,           0.
   5899,   16.6431808,   37.1318054,           0.
   5900,   17.6473103,   35.2485847,           0.
   5901,   16.9511223,   35.2657738,           0.
   5902,   16.6324463,   36.7996712,           0.
   5903,   16.7588882,   37.5618172,           0.
   5904,   16.4377098,   37.9837303,           0.
   5905,   16.3123608,   36.6231194,           0.
   5906,   16.9361439,   34.5734711,           0.
   5907,   16.6496964,   36.2756157,           0.
   5908,   17.6340618,   34.5699348,           0.
   5909,   17.9829159,   34.2304192,           0.
   5910,   17.9867325,   33.5283089,           0.
   5911,   18.3344612,   33.8912697,           0.
   5912,   16.9317265,   38.8604431,           0.
   5913,   24.4619884,   29.9685898,           0.
   5914,   21.7840767,   36.3168945,           0.
   5915,   20.1241856,   44.1820564,           0.
   5916,   22.0843353,   46.3627548,           0.
   5917,   21.1774673,   45.2445107,           0.
   5918,   19.4120731,   42.9262772,           0.
   5919,   21.1056728,   31.0683594,           0.
   5920,   19.8655376,   41.6894341,           0.
   5921,   22.1266041,   30.0184269,           0.
   5922,   20.0377598,   32.1096382,           0.
   5923,   16.2892265,   37.6280556,           0.
   5924,   16.9197292,   39.5540276,           0.
   5925,   19.3193531,   42.3316269,           0.
   5926,   16.5597649,   38.5273209,           0.
   5927,   23.7377281,   33.8357468,           0.
   5928,   23.0578594,    37.891304,           0.
   5929,   16.5697937,   39.2122536,           0.
   5930,   15.8507061,   38.5352859,           0.
   5931,   20.0789165,   31.4081669,           0.
   5932,   21.1350422,   30.3557701,           0.
   5933,   22.1644001,   29.2956505,           0.
   5934,   20.1233082,   44.8519516,           0.
   5935,    16.558157,    39.903862,           0.
   5936,   15.8780785,   37.8644409,           0.
   5937,   21.1417809,   45.9195099,           0.
   5938,    22.146925,   46.9940605,           0.
   5939,   19.4184914,   43.5345764,           0.
   5940,     16.21245,    38.875782,           0.
   5941,   15.9347315,   36.3318253,           0.
   5942,   19.0670185,   43.8244553,           0.
   5943,   15.5873985,   37.4651184,           0.
   5944,   15.5104389,   38.1733055,           0.
   5945,   16.2131062,   39.5599747,           0.
   5946,   15.5055923,   38.8633652,           0.
   5947,   16.8600883,   40.9365273,           0.
   5948,    15.899827,   35.6297722,           0.
   5949,   16.2779808,   35.9579048,           0.
   5950,   16.8960514,   41.6249199,           0.
   5951,   15.1554441,   38.5047798,           0.
   5952,   17.4787941,   41.5200424,           0.
   5953,   14.8069172,   38.8429871,           0.
   5954,   15.8600693,   40.5971603,           0.
   5955,   14.4665136,   37.7814369,           0.
   5956,   16.2030849,   40.2529259,           0.
   5957,   14.8127918,   39.5388947,           0.
   5958,   13.7603264,   37.7680321,           0.
   5959,   14.8412857,   37.4345016,           0.
   5960,   14.8489113,   36.7151146,           0.
   5961,   13.4072533,    38.117485,           0.
   5962,   24.8369217,   26.4261723,           0.
   5963,   23.9179096,   27.3998451,           0.
   5964,   13.7573032,   38.4732361,           0.
   5965,   23.6747913,   27.6227303,           0.
   5966,    24.721468,   26.9791336,           0.
   5967,   24.3688545,   48.7956276,           0.
   5968,   14.8122892,   38.1427727,           0.
   5969,   23.6535587,   28.4659634,           0.
   5970,   24.4357758,   28.5401707,           0.
   5971,   23.8773327,   46.5018272,           0.
   5972,   23.8063164,   46.1178513,           0.
   5973,   17.7739506,   41.2184525,           0.
   5974,   18.0025349,   41.5131454,           0.
   5975,   24.1505375,   45.3607025,           0.
   5976,   24.1839638,   44.7106056,           0.
   5977,    24.187809,    44.336319,           0.
   5978,   23.9328842,   36.9941292,           0.
   5979,   24.0250359,   36.6381187,           0.
   5980,    23.895052,   34.0704613,           0.
   5981,   23.9714832,   32.7429199,           0.
   5982,   23.9773998,   29.6064701,           0.
   5983,    23.884964,   29.2116356,           0.
   5984,   24.2663918,   39.0490646,           0.
   5985,   18.1688004,   41.7804832,           0.
   5986,   23.5363121,   28.9229279,           0.
   5987,   23.1056461,   29.6537342,           0.
   5988,   23.4783936,   46.4945641,           0.
   5989,   23.7694168,   39.1959343,           0.
   5990,    18.112772,    40.959053,           0.
   5991,   23.0592175,   38.5585518,           0.
   5992,   20.3432083,   32.4494209,           0.
   5993,    23.909193,   45.1281433,           0.
   5994,   23.7919445,   44.2648239,           0.
   5995,   22.9103222,   41.4617577,           0.
   5996,   23.6391506,   36.5616722,           0.
   5997,   23.6192284,   36.2249222,           0.
   5998,   23.6419945,   35.0629425,           0.
   5999,   23.4730701,   30.0313358,           0.
   6000,   23.6337109,   29.6431618,           0.
   6001,   23.1553822,   37.2849998,           0.
   6002,   23.1215954,   46.4124718,           0.
   6003,   23.1190815,   46.1027489,           0.
   6004,   23.4931507,   42.7568665,           0.
   6005,    23.215601,   34.6756058,           0.
   6006,   23.2583599,   30.6454277,           0.
   6007,   23.5429535,   40.3390045,           0.
   6008,   23.7441521,   39.6501312,           0.
   6009,   23.1832352,   39.1181793,           0.
   6010,   22.9365482,   36.9380035,           0.
   6011,   20.2277966,   41.9350586,           0.
   6012,   22.8681927,   46.2193527,           0.
   6013,   22.6605148,   45.9076118,           0.
   6014,   23.0160313,   30.8332882,           0.
   6015,   23.3493366,   30.9304047,           0.
   6016,   22.5866184,    45.085083,           0.
   6017,   23.4043179,   39.9307098,           0.
   6018,   22.8488102,   36.5243912,           0.
   6019,   23.1844196,   42.5301094,           0.
   6020,   22.4390221,   45.5543823,           0.
   6021,   20.3150234,   33.1192818,           0.
   6022,   16.9616032,   36.6180153,           0.
   6023,   23.0603199,   39.3986664,           0.
   6024,   22.6172886,   33.8891754,           0.
   6025,   22.6260643,   33.4638748,           0.
   6026,   19.8165245,     41.16185,           0.
   6027,   18.8402348,    40.496254,           0.
   6028,   21.3516903,   38.6340752,           0.
   6029,   23.1926365,   42.7825699,           0.
   6030,   18.9663239,   40.0404472,           0.
   6031,   22.9616089,   39.8572388,           0.
   6032,    22.211607,   36.2411575,           0.
   6033,   22.4039841,   35.7591476,           0.
   6034,   22.4591541,   43.1713333,           0.
   6035,   22.4399281,   42.6577873,           0.
   6036,   22.2063274,   33.8627014,           0.
   6037,   21.3442822,   36.4076042,           0.
   6038,   20.9564476,    41.348671,           0.
   6039,   22.1015644,   35.8528214,           0.
   6040,   20.9547443,   40.8944817,           0.
   6041,   20.6630306,   40.9375229,           0.
   6042,   22.5151081,   43.7324524,           0.
   6043,   21.8498936,   40.1389389,           0.
   6044,   21.8207111,    33.986351,           0.
   6045,   21.2909374,   33.7776794,           0.
   6046,    18.537138,   39.3858299,           0.
   6047,    20.149889,     34.14048,           0.
   6048,   18.9774361,   35.3423653,           0.
   6049,   21.5289688,   34.5964508,           0.
   6050,   20.4072094,   40.6729546,           0.
   6051,   21.4518204,   34.1442451,           0.
   6052,   19.9992085,   38.3163948,           0.
   6053,   22.1611309,   35.5732117,           0.
   6054,   20.2264862,   35.5505028,           0.
   6055,   20.9546337,    35.148056,           0.
   6056,   18.9462185,   36.3344574,           0.
   6057,   19.4164772,   37.6062698,           0.
   6058,   18.8561287,   37.3586769,           0.
*Element, type=S4R
   1,    1,    9,  589,  148
   2,    9,   10,  590,  589
   3,   10,   11,  591,  590
   4,   11,   12,  592,  591
   5,   12,   13,  593,  592
   6,   13,   14,  594,  593
   7,   14,   15,  595,  594
   8,   15,   16,  596,  595
   9,   16,   17,  597,  596
  10,   17,   18,  598,  597
  11,   18,   19,  599,  598
  12,   19,   20,  600,  599
  13,   20,   21,  601,  600
  14,   21,   22,  602,  601
  15,   22,   23,  603,  602
  16,   23,   24,  604,  603
  17,   24,   25,  605,  604
  18,   25,   26,  606,  605
  19,   26,   27,  607,  606
  20,   27,   28,  608,  607
  21,   28,   29,  609,  608
  22,   29,   30,  610,  609
  23,   30,   31,  611,  610
  24,   31,   32,  612,  611
  25,   32,   33,  613,  612
  26,   33,   34,  614,  613
  27,   34,   35,  615,  614
  28,   35,   36,  616,  615
  29,   36,   37,  617,  616
  30,   37,   38,  618,  617
  31,   38,   39,  619,  618
  32,   39,   40,  620,  619
  33,   40,   41,  621,  620
  34,   41,   42,  622,  621
  35,   42,   43,  623,  622
  36,   43,    2,   44,  623
  37,  148,  589,  624,  147
  38,  589,  590,  625,  624
  39,  590,  591,  626,  625
  40,  591,  592,  627,  626
  41,  592,  593,  628,  627
  42,  593,  594,  629,  628
  43,  594,  595,  630,  629
  44,  595,  596,  631,  630
  45,  596,  597,  632,  631
  46,  597,  598,  633,  632
  47,  598,  599,  634,  633
  48,  599,  600,  635,  634
  49,  600,  601,  636,  635
  50,  601,  602,  637,  636
  51,  602,  603,  638,  637
  52,  603,  604,  639,  638
  53,  604,  605,  640,  639
  54,  605,  606,  641,  640
  55,  606,  607,  642,  641
  56,  607,  608,  643,  642
  57,  608,  609,  644,  643
  58,  609,  610,  645,  644
  59,  610,  611,  646,  645
  60,  611,  612,  647,  646
  61,  612,  613,  648,  647
  62,  613,  614,  649,  648
  63,  614,  615,  650,  649
  64,  615,  616,  651,  650
  65,  616,  617,  652,  651
  66,  617,  618,  653,  652
  67,  618,  619,  654,  653
  68,  619,  620,  655,  654
  69,  620,  621,  656,  655
  70,  621,  622,  657,  656
  71,  622,  623,  658,  657
  72,  623,   44,   45,  658
  73,  147,  624,  659,  146
  74,  624,  625,  660,  659
  75,  625,  626,  661,  660
  76,  626,  627,  662,  661
  77,  627,  628,  663,  662
  78,  628,  629,  664,  663
  79,  629,  630,  665,  664
  80,  630,  631,  666,  665
  81,  631,  632,  667,  666
  82,  632,  633,  668,  667
  83,  633,  634,  669,  668
  84,  634,  635,  670,  669
  85,  635,  636,  671,  670
  86,  636,  637,  672,  671
  87,  637,  638,  673,  672
  88,  638,  639,  674,  673
  89,  639,  640,  675,  674
  90,  640,  641,  676,  675
  91,  641,  642,  677,  676
  92,  642,  643,  678,  677
  93,  643,  644,  679,  678
  94,  644,  645,  680,  679
  95,  645,  646,  681,  680
  96,  646,  647,  682,  681
  97,  647,  648,  683,  682
  98,  648,  649,  684,  683
  99,  649,  650,  685,  684
 100,  650,  651,  686,  685
 101,  651,  652,  687,  686
 102,  652,  653,  688,  687
 103,  653,  654,  689,  688
 104,  654,  655,  690,  689
 105,  655,  656,  691,  690
 106,  656,  657,  692,  691
 107,  657,  658,  693,  692
 108,  658,   45,   46,  693
 109,  146,  659,  694,  145
 110,  659,  660,  695,  694
 111,  660,  661,  696,  695
 112,  661,  662,  697,  696
 113,  662,  663,  698,  697
 114,  663,  664,  699,  698
 115,  664,  665,  700,  699
 116,  665,  666,  701,  700
 117,  666,  667,  702,  701
 118,  667,  668,  703,  702
 119,  668,  669,  704,  703
 120,  669,  670,  705,  704
 121,  670,  671,  706,  705
 122,  671,  672,  707,  706
 123,  672,  673,  708,  707
 124,  673,  674,  709,  708
 125,  674,  675,  710,  709
 126,  675,  676,  711,  710
 127,  676,  677,  712,  711
 128,  677,  678,  713,  712
 129,  678,  679,  714,  713
 130,  679,  680,  715,  714
 131,  680,  681,  716,  715
 132,  681,  682,  717,  716
 133,  682,  683,  718,  717
 134,  683,  684,  719,  718
 135,  684,  685,  720,  719
 136,  685,  686,  721,  720
 137,  686,  687,  722,  721
 138,  687,  688,  723,  722
 139,  688,  689,  724,  723
 140,  689,  690,  725,  724
 141,  690,  691,  726,  725
 142,  691,  692,  727,  726
 143,  692,  693,  728,  727
 144,  693,   46,   47,  728
 145,  145,  694,  729,  144
 146,  694,  695,  730,  729
 147,  695,  696,  731,  730
 148,  696,  697,  732,  731
 149,  697,  698,  733,  732
 150,  698,  699,  734,  733
 151,  699,  700,  735,  734
 152,  700,  701,  736,  735
 153,  701,  702,  737,  736
 154,  702,  703,  738,  737
 155,  703,  704,  739,  738
 156,  704,  705,  740,  739
 157,  705,  706,  741,  740
 158,  706,  707,  742,  741
 159,  707,  708,  743,  742
 160,  708,  709,  744,  743
 161,  709,  710,  745,  744
 162,  710,  711,  746,  745
 163,  711,  712,  747,  746
 164,  712,  713,  748,  747
 165,  713,  714,  749,  748
 166,  714,  715,  750,  749
 167,  715,  716,  751,  750
 168,  716,  717,  752,  751
 169,  717,  718,  753,  752
 170,  718,  719,  754,  753
 171,  719,  720,  755,  754
 172,  720,  721,  756,  755
 173,  721,  722,  757,  756
 174,  722,  723,  758,  757
 175,  723,  724,  759,  758
 176,  724,  725,  760,  759
 177,  725,  726,  761,  760
 178,  726,  727,  762,  761
 179,  727,  728,  763,  762
 180,  728,   47,   48,  763
 181,  144,  729,  764,  143
 182,  729,  730,  765,  764
 183,  730,  731,  766,  765
 184,  731,  732,  767,  766
 185,  732,  733,  768,  767
 186,  733,  734,  769,  768
 187,  734,  735,  770,  769
 188,  735,  736,  771,  770
 189,  736,  737,  772,  771
 190,  737,  738,  773,  772
 191,  738,  739,  774,  773
 192,  739,  740,  775,  774
 193,  740,  741,  776,  775
 194,  741,  742,  777,  776
 195,  742,  743,  778,  777
 196,  743,  744,  779,  778
 197,  744,  745,  780,  779
 198,  745,  746,  781,  780
 199,  746,  747,  782,  781
 200,  747,  748,  783,  782
 201,  748,  749,  784,  783
 202,  749,  750,  785,  784
 203,  750,  751,  786,  785
 204,  751,  752,  787,  786
 205,  752,  753,  788,  787
 206,  753,  754,  789,  788
 207,  754,  755,  790,  789
 208,  755,  756,  791,  790
 209,  756,  757,  792,  791
 210,  757,  758,  793,  792
 211,  758,  759,  794,  793
 212,  759,  760,  795,  794
 213,  760,  761,  796,  795
 214,  761,  762,  797,  796
 215,  762,  763,  798,  797
 216,  763,   48,   49,  798
 217,  143,  764,  799,  142
 218,  764,  765,  800,  799
 219,  765,  766,  801,  800
 220,  766,  767,  802,  801
 221,  767,  768,  803,  802
 222,  768,  769,  804,  803
 223,  769,  770,  805,  804
 224,  770,  771,  806,  805
 225,  771,  772,  807,  806
 226,  772,  773,  808,  807
 227,  773,  774,  809,  808
 228,  774,  775,  810,  809
 229,  775,  776,  811,  810
 230,  776,  777,  812,  811
 231,  777,  778,  813,  812
 232,  778,  779,  814,  813
 233,  779,  780,  815,  814
 234,  780,  781,  816,  815
 235,  781,  782,  817,  816
 236,  782,  783,  818,  817
 237,  783,  784,  819,  818
 238,  784,  785,  820,  819
 239,  785,  786,  821,  820
 240,  786,  787,  822,  821
 241,  787,  788,  823,  822
 242,  788,  789,  824,  823
 243,  789,  790,  825,  824
 244,  790,  791,  826,  825
 245,  791,  792,  827,  826
 246,  792,  793,  828,  827
 247,  793,  794,  829,  828
 248,  794,  795,  830,  829
 249,  795,  796,  831,  830
 250,  796,  797,  832,  831
 251,  797,  798,  833,  832
 252,  798,   49,   50,  833
 253,  142,  799,  834,  141
 254,  799,  800,  835,  834
 255,  800,  801,  836,  835
 256,  801,  802,  837,  836
 257,  802,  803,  838,  837
 258,  803,  804,  839,  838
 259,  804,  805,  840,  839
 260,  805,  806,  841,  840
 261,  806,  807,  842,  841
 262,  807,  808,  843,  842
 263,  808,  809,  844,  843
 264,  809,  810,  845,  844
 265,  810,  811,  846,  845
 266,  811,  812,  847,  846
 267,  812,  813,  848,  847
 268,  813,  814,  849,  848
 269,  814,  815,  850,  849
 270,  815,  816,  851,  850
 271,  816,  817,  852,  851
 272,  817,  818,  853,  852
 273,  818,  819,  854,  853
 274,  819,  820,  855,  854
 275,  820,  821,  856,  855
 276,  821,  822,  857,  856
 277,  822,  823,  858,  857
 278,  823,  824,  859,  858
 279,  824,  825,  860,  859
 280,  825,  826,  861,  860
 281,  826,  827,  862,  861
 282,  827,  828,  863,  862
 283,  828,  829,  864,  863
 284,  829,  830,  865,  864
 285,  830,  831,  866,  865
 286,  831,  832,  867,  866
 287,  832,  833,  868,  867
 288,  833,   50,   51,  868
 289,  141,  834,  869,  140
 290,  834,  835,  870,  869
 291,  835,  836,  871,  870
 292,  836,  837,  872,  871
 293,  837,  838,  873,  872
 294,  838,  839,  874,  873
 295,  839,  840,  875,  874
 296,  840,  841,  876,  875
 297,  841,  842,  877,  876
 298,  842,  843,  878,  877
 299,  843,  844,  879,  878
 300,  844,  845,  880,  879
 301,  845,  846,  881,  880
 302,  846,  847,  882,  881
 303,  847,  848,  883,  882
 304,  848,  849,  884,  883
 305,  849,  850,  885,  884
 306,  850,  851,  886,  885
 307,  851,  852,  887,  886
 308,  852,  853,  888,  887
 309,  853,  854,  889,  888
 310,  854,  855,  890,  889
 311,  855,  856,  891,  890
 312,  856,  857,  892,  891
 313,  857,  858,  893,  892
 314,  858,  859,  894,  893
 315,  859,  860,  895,  894
 316,  860,  861,  896,  895
 317,  861,  862,  897,  896
 318,  862,  863,  898,  897
 319,  863,  864,  899,  898
 320,  864,  865,  900,  899
 321,  865,  866,  901,  900
 322,  866,  867,  902,  901
 323,  867,  868,  903,  902
 324,  868,   51,   52,  903
 325,  140,  869,  904,  139
 326,  869,  870,  905,  904
 327,  870,  871,  906,  905
 328,  871,  872,  907,  906
 329,  872,  873,  908,  907
 330,  873,  874,  909,  908
 331,  874,  875,  910,  909
 332,  875,  876,  911,  910
 333,  876,  877,  912,  911
 334,  877,  878,  913,  912
 335,  878,  879,  914,  913
 336,  879,  880,  915,  914
 337,  880,  881,  916,  915
 338,  881,  882,  917,  916
 339,  882,  883,  918,  917
 340,  883,  884,  919,  918
 341,  884,  885,  920,  919
 342,  885,  886,  921,  920
 343,  886,  887,  922,  921
 344,  887,  888,  923,  922
 345,  888,  889,  924,  923
 346,  889,  890,  925,  924
 347,  890,  891,  926,  925
 348,  891,  892,  927,  926
 349,  892,  893,  928,  927
 350,  893,  894,  929,  928
 351,  894,  895,  930,  929
 352,  895,  896,  931,  930
 353,  896,  897,  932,  931
 354,  897,  898,  933,  932
 355,  898,  899,  934,  933
 356,  899,  900,  935,  934
 357,  900,  901,  936,  935
 358,  901,  902,  937,  936
 359,  902,  903,  938,  937
 360,  903,   52,   53,  938
 361,  139,  904,  939,  138
 362,  904,  905,  940,  939
 363,  905,  906,  941,  940
 364,  906,  907,  942,  941
 365,  907,  908,  943,  942
 366,  908,  909,  944,  943
 367,  909,  910,  945,  944
 368,  910,  911,  946,  945
 369,  911,  912,  947,  946
 370,  912,  913,  948,  947
 371,  913,  914,  949,  948
 372,  914,  915,  950,  949
 373,  915,  916,  951,  950
 374,  916,  917,  952,  951
 375,  917,  918,  953,  952
 376,  918,  919,  954,  953
 377,  919,  920,  955,  954
 378,  920,  921,  956,  955
 379,  921,  922,  957,  956
 380,  922,  923,  958,  957
 381,  923,  924,  959,  958
 382,  924,  925,  960,  959
 383,  925,  926,  961,  960
 384,  926,  927,  962,  961
 385,  927,  928,  963,  962
 386,  928,  929,  964,  963
 387,  929,  930,  965,  964
 388,  930,  931,  966,  965
 389,  931,  932,  967,  966
 390,  932,  933,  968,  967
 391,  933,  934,  969,  968
 392,  934,  935,  970,  969
 393,  935,  936,  971,  970
 394,  936,  937,  972,  971
 395,  937,  938,  973,  972
 396,  938,   53,   54,  973
 397,  138,  939,  974,  137
 398,  939,  940,  975,  974
 399,  940,  941,  976,  975
 400,  941,  942,  977,  976
 401,  942,  943,  978,  977
 402,  943,  944,  979,  978
 403,  944,  945,  980,  979
 404,  945,  946,  981,  980
 405,  946,  947,  982,  981
 406,  947,  948,  983,  982
 407,  948,  949,  984,  983
 408,  949,  950,  985,  984
 409,  950,  951,  986,  985
 410,  951,  952,  987,  986
 411,  952,  953,  988,  987
 412,  953,  954,  989,  988
 413,  954,  955,  990,  989
 414,  955,  956,  991,  990
 415,  956,  957,  992,  991
 416,  957,  958,  993,  992
 417,  958,  959,  994,  993
 418,  959,  960,  995,  994
 419,  960,  961,  996,  995
 420,  961,  962,  997,  996
 421,  962,  963,  998,  997
 422,  963,  964,  999,  998
 423,  964,  965, 1000,  999
 424,  965,  966, 1001, 1000
 425,  966,  967, 1002, 1001
 426,  967,  968, 1003, 1002
 427,  968,  969, 1004, 1003
 428,  969,  970, 1005, 1004
 429,  970,  971, 1006, 1005
 430,  971,  972, 1007, 1006
 431,  972,  973, 1008, 1007
 432,  973,   54,   55, 1008
 433,  137,  974, 1009,  136
 434,  974,  975, 1010, 1009
 435,  975,  976, 1011, 1010
 436,  976,  977, 1012, 1011
 437,  977,  978, 1013, 1012
 438,  978,  979, 1014, 1013
 439,  979,  980, 1015, 1014
 440,  980,  981, 1016, 1015
 441,  981,  982, 1017, 1016
 442,  982,  983, 1018, 1017
 443,  983,  984, 1019, 1018
 444,  984,  985, 1020, 1019
 445,  985,  986, 1021, 1020
 446,  986,  987, 1022, 1021
 447,  987,  988, 1023, 1022
 448,  988,  989, 1024, 1023
 449,  989,  990, 1025, 1024
 450,  990,  991, 1026, 1025
 451,  991,  992, 1027, 1026
 452,  992,  993, 1028, 1027
 453,  993,  994, 1029, 1028
 454,  994,  995, 1030, 1029
 455,  995,  996, 1031, 1030
 456,  996,  997, 1032, 1031
 457,  997,  998, 1033, 1032
 458,  998,  999, 1034, 1033
 459,  999, 1000, 1035, 1034
 460, 1000, 1001, 1036, 1035
 461, 1001, 1002, 1037, 1036
 462, 1002, 1003, 1038, 1037
 463, 1003, 1004, 1039, 1038
 464, 1004, 1005, 1040, 1039
 465, 1005, 1006, 1041, 1040
 466, 1006, 1007, 1042, 1041
 467, 1007, 1008, 1043, 1042
 468, 1008,   55,   56, 1043
 469,  136, 1009, 1044,  135
 470, 1009, 1010, 1045, 1044
 471, 1010, 1011, 1046, 1045
 472, 1011, 1012, 1047, 1046
 473, 1012, 1013, 1048, 1047
 474, 1013, 1014, 1049, 1048
 475, 1014, 1015, 1050, 1049
 476, 1015, 1016, 1051, 1050
 477, 1016, 1017, 1052, 1051
 478, 1017, 1018, 1053, 1052
 479, 1018, 1019, 1054, 1053
 480, 1019, 1020, 1055, 1054
 481, 1020, 1021, 1056, 1055
 482, 1021, 1022, 1057, 1056
 483, 1022, 1023, 1058, 1057
 484, 1023, 1024, 1059, 1058
 485, 1024, 1025, 1060, 1059
 486, 1025, 1026, 1061, 1060
 487, 1026, 1027, 1062, 1061
 488, 1027, 1028, 1063, 1062
 489, 1028, 1029, 1064, 1063
 490, 1029, 1030, 1065, 1064
 491, 1030, 1031, 1066, 1065
 492, 1031, 1032, 1067, 1066
 493, 1032, 1033, 1068, 1067
 494, 1033, 1034, 1069, 1068
 495, 1034, 1035, 1070, 1069
 496, 1035, 1036, 1071, 1070
 497, 1036, 1037, 1072, 1071
 498, 1037, 1038, 1073, 1072
 499, 1038, 1039, 1074, 1073
 500, 1039, 1040, 1075, 1074
 501, 1040, 1041, 1076, 1075
 502, 1041, 1042, 1077, 1076
 503, 1042, 1043, 1078, 1077
 504, 1043,   56,   57, 1078
 505,  135, 1044, 1079,  134
 506, 1044, 1045, 1080, 1079
 507, 1045, 1046, 1081, 1080
 508, 1046, 1047, 1082, 1081
 509, 1047, 1048, 1083, 1082
 510, 1048, 1049, 1084, 1083
 511, 1049, 1050, 1085, 1084
 512, 1050, 1051, 1086, 1085
 513, 1051, 1052, 1087, 1086
 514, 1052, 1053, 1088, 1087
 515, 1053, 1054, 1089, 1088
 516, 1054, 1055, 1090, 1089
 517, 1055, 1056, 1091, 1090
 518, 1056, 1057, 1092, 1091
 519, 1057, 1058, 1093, 1092
 520, 1058, 1059, 1094, 1093
 521, 1059, 1060, 1095, 1094
 522, 1060, 1061, 1096, 1095
 523, 1061, 1062, 1097, 1096
 524, 1062, 1063, 1098, 1097
 525, 1063, 1064, 1099, 1098
 526, 1064, 1065, 1100, 1099
 527, 1065, 1066, 1101, 1100
 528, 1066, 1067, 1102, 1101
 529, 1067, 1068, 1103, 1102
 530, 1068, 1069, 1104, 1103
 531, 1069, 1070, 1105, 1104
 532, 1070, 1071, 1106, 1105
 533, 1071, 1072, 1107, 1106
 534, 1072, 1073, 1108, 1107
 535, 1073, 1074, 1109, 1108
 536, 1074, 1075, 1110, 1109
 537, 1075, 1076, 1111, 1110
 538, 1076, 1077, 1112, 1111
 539, 1077, 1078, 1113, 1112
 540, 1078,   57,   58, 1113
 541,  134, 1079, 1114,  133
 542, 1079, 1080, 1115, 1114
 543, 1080, 1081, 1116, 1115
 544, 1081, 1082, 1117, 1116
 545, 1082, 1083, 1118, 1117
 546, 1083, 1084, 1119, 1118
 547, 1084, 1085, 1120, 1119
 548, 1085, 1086, 1121, 1120
 549, 1086, 1087, 1122, 1121
 550, 1087, 1088, 1123, 1122
 551, 1088, 1089, 1124, 1123
 552, 1089, 1090, 1125, 1124
 553, 1090, 1091, 1126, 1125
 554, 1091, 1092, 1127, 1126
 555, 1092, 1093, 1128, 1127
 556, 1093, 1094, 1129, 1128
 557, 1094, 1095, 1130, 1129
 558, 1095, 1096, 1131, 1130
 559, 1096, 1097, 1132, 1131
 560, 1097, 1098, 1133, 1132
 561, 1098, 1099, 1134, 1133
 562, 1099, 1100, 1135, 1134
 563, 1100, 1101, 1136, 1135
 564, 1101, 1102, 1137, 1136
 565, 1102, 1103, 1138, 1137
 566, 1103, 1104, 1139, 1138
 567, 1104, 1105, 1140, 1139
 568, 1105, 1106, 1141, 1140
 569, 1106, 1107, 1142, 1141
 570, 1107, 1108, 1143, 1142
 571, 1108, 1109, 1144, 1143
 572, 1109, 1110, 1145, 1144
 573, 1110, 1111, 1146, 1145
 574, 1111, 1112, 1147, 1146
 575, 1112, 1113, 1148, 1147
 576, 1113,   58,   59, 1148
 577,  133, 1114, 1149,  132
 578, 1114, 1115, 1150, 1149
 579, 1115, 1116, 1151, 1150
 580, 1116, 1117, 1152, 1151
 581, 1117, 1118, 1153, 1152
 582, 1118, 1119, 1154, 1153
 583, 1119, 1120, 1155, 1154
 584, 1120, 1121, 1156, 1155
 585, 1121, 1122, 1157, 1156
 586, 1122, 1123, 1158, 1157
 587, 1123, 1124, 1159, 1158
 588, 1124, 1125, 1160, 1159
 589, 1125, 1126, 1161, 1160
 590, 1126, 1127, 1162, 1161
 591, 1127, 1128, 1163, 1162
 592, 1128, 1129, 1164, 1163
 593, 1129, 1130, 1165, 1164
 594, 1130, 1131, 1166, 1165
 595, 1131, 1132, 1167, 1166
 596, 1132, 1133, 1168, 1167
 597, 1133, 1134, 1169, 1168
 598, 1134, 1135, 1170, 1169
 599, 1135, 1136, 1171, 1170
 600, 1136, 1137, 1172, 1171
 601, 1137, 1138, 1173, 1172
 602, 1138, 1139, 1174, 1173
 603, 1139, 1140, 1175, 1174
 604, 1140, 1141, 1176, 1175
 605, 1141, 1142, 1177, 1176
 606, 1142, 1143, 1178, 1177
 607, 1143, 1144, 1179, 1178
 608, 1144, 1145, 1180, 1179
 609, 1145, 1146, 1181, 1180
 610, 1146, 1147, 1182, 1181
 611, 1147, 1148, 1183, 1182
 612, 1148,   59,   60, 1183
 613,  132, 1149, 1184,  131
 614, 1149, 1150, 1185, 1184
 615, 1150, 1151, 1186, 1185
 616, 1151, 1152, 1187, 1186
 617, 1152, 1153, 1188, 1187
 618, 1153, 1154, 1189, 1188
 619, 1154, 1155, 1190, 1189
 620, 1155, 1156, 1191, 1190
 621, 1156, 1157, 1192, 1191
 622, 1157, 1158, 1193, 1192
 623, 1158, 1159, 1194, 1193
 624, 1159, 1160, 1195, 1194
 625, 1160, 1161, 1196, 1195
 626, 1161, 1162, 1197, 1196
 627, 1162, 1163, 1198, 1197
 628, 1163, 1164, 1199, 1198
 629, 1164, 1165, 1200, 1199
 630, 1165, 1166, 1201, 1200
 631, 1166, 1167, 1202, 1201
 632, 1167, 1168, 1203, 1202
 633, 1168, 1169, 1204, 1203
 634, 1169, 1170, 1205, 1204
 635, 1170, 1171, 1206, 1205
 636, 1171, 1172, 1207, 1206
 637, 1172, 1173, 1208, 1207
 638, 1173, 1174, 1209, 1208
 639, 1174, 1175, 1210, 1209
 640, 1175, 1176, 1211, 1210
 641, 1176, 1177, 1212, 1211
 642, 1177, 1178, 1213, 1212
 643, 1178, 1179, 1214, 1213
 644, 1179, 1180, 1215, 1214
 645, 1180, 1181, 1216, 1215
 646, 1181, 1182, 1217, 1216
 647, 1182, 1183, 1218, 1217
 648, 1183,   60,   61, 1218
 649,  131, 1184, 1219,  130
 650, 1184, 1185, 1220, 1219
 651, 1185, 1186, 1221, 1220
 652, 1186, 1187, 1222, 1221
 653, 1187, 1188, 1223, 1222
 654, 1188, 1189, 1224, 1223
 655, 1189, 1190, 1225, 1224
 656, 1190, 1191, 1226, 1225
 657, 1191, 1192, 1227, 1226
 658, 1192, 1193, 1228, 1227
 659, 1193, 1194, 1229, 1228
 660, 1194, 1195, 1230, 1229
 661, 1195, 1196, 1231, 1230
 662, 1196, 1197, 1232, 1231
 663, 1197, 1198, 1233, 1232
 664, 1198, 1199, 1234, 1233
 665, 1199, 1200, 1235, 1234
 666, 1200, 1201, 1236, 1235
 667, 1201, 1202, 1237, 1236
 668, 1202, 1203, 1238, 1237
 669, 1203, 1204, 1239, 1238
 670, 1204, 1205, 1240, 1239
 671, 1205, 1206, 1241, 1240
 672, 1206, 1207, 1242, 1241
 673, 1207, 1208, 1243, 1242
 674, 1208, 1209, 1244, 1243
 675, 1209, 1210, 1245, 1244
 676, 1210, 1211, 1246, 1245
 677, 1211, 1212, 1247, 1246
 678, 1212, 1213, 1248, 1247
 679, 1213, 1214, 1249, 1248
 680, 1214, 1215, 1250, 1249
 681, 1215, 1216, 1251, 1250
 682, 1216, 1217, 1252, 1251
 683, 1217, 1218, 1253, 1252
 684, 1218,   61,   62, 1253
 685,  130, 1219, 1254,  129
 686, 1219, 1220, 1255, 1254
 687, 1220, 1221, 1256, 1255
 688, 1221, 1222, 1257, 1256
 689, 1222, 1223, 1258, 1257
 690, 1223, 1224, 1259, 1258
 691, 1224, 1225, 1260, 1259
 692, 1225, 1226, 1261, 1260
 693, 1226, 1227, 1262, 1261
 694, 1227, 1228, 1263, 1262
 695, 1228, 1229, 1264, 1263
 696, 1229, 1230, 1265, 1264
 697, 1230, 1231, 1266, 1265
 698, 1231, 1232, 1267, 1266
 699, 1232, 1233, 1268, 1267
 700, 1233, 1234, 1269, 1268
 701, 1234, 1235, 1270, 1269
 702, 1235, 1236, 1271, 1270
 703, 1236, 1237, 1272, 1271
 704, 1237, 1238, 1273, 1272
 705, 1238, 1239, 1274, 1273
 706, 1239, 1240, 1275, 1274
 707, 1240, 1241, 1276, 1275
 708, 1241, 1242, 1277, 1276
 709, 1242, 1243, 1278, 1277
 710, 1243, 1244, 1279, 1278
 711, 1244, 1245, 1280, 1279
 712, 1245, 1246, 1281, 1280
 713, 1246, 1247, 1282, 1281
 714, 1247, 1248, 1283, 1282
 715, 1248, 1249, 1284, 1283
 716, 1249, 1250, 1285, 1284
 717, 1250, 1251, 1286, 1285
 718, 1251, 1252, 1287, 1286
 719, 1252, 1253, 1288, 1287
 720, 1253,   62,   63, 1288
 721,  129, 1254, 1289,  128
 722, 1254, 1255, 1290, 1289
 723, 1255, 1256, 1291, 1290
 724, 1256, 1257, 1292, 1291
 725, 1257, 1258, 1293, 1292
 726, 1258, 1259, 1294, 1293
 727, 1259, 1260, 1295, 1294
 728, 1260, 1261, 1296, 1295
 729, 1261, 1262, 1297, 1296
 730, 1262, 1263, 1298, 1297
 731, 1263, 1264, 1299, 1298
 732, 1264, 1265, 1300, 1299
 733, 1265, 1266, 1301, 1300
 734, 1266, 1267, 1302, 1301
 735, 1267, 1268, 1303, 1302
 736, 1268, 1269, 1304, 1303
 737, 1269, 1270, 1305, 1304
 738, 1270, 1271, 1306, 1305
 739, 1271, 1272, 1307, 1306
 740, 1272, 1273, 1308, 1307
 741, 1273, 1274, 1309, 1308
 742, 1274, 1275, 1310, 1309
 743, 1275, 1276, 1311, 1310
 744, 1276, 1277, 1312, 1311
 745, 1277, 1278, 1313, 1312
 746, 1278, 1279, 1314, 1313
 747, 1279, 1280, 1315, 1314
 748, 1280, 1281, 1316, 1315
 749, 1281, 1282, 1317, 1316
 750, 1282, 1283, 1318, 1317
 751, 1283, 1284, 1319, 1318
 752, 1284, 1285, 1320, 1319
 753, 1285, 1286, 1321, 1320
 754, 1286, 1287, 1322, 1321
 755, 1287, 1288, 1323, 1322
 756, 1288,   63,   64, 1323
 757,  128, 1289, 1324,  127
 758, 1289, 1290, 1325, 1324
 759, 1290, 1291, 1326, 1325
 760, 1291, 1292, 1327, 1326
 761, 1292, 1293, 1328, 1327
 762, 1293, 1294, 1329, 1328
 763, 1294, 1295, 1330, 1329
 764, 1295, 1296, 1331, 1330
 765, 1296, 1297, 1332, 1331
 766, 1297, 1298, 1333, 1332
 767, 1298, 1299, 1334, 1333
 768, 1299, 1300, 1335, 1334
 769, 1300, 1301, 1336, 1335
 770, 1301, 1302, 1337, 1336
 771, 1302, 1303, 1338, 1337
 772, 1303, 1304, 1339, 1338
 773, 1304, 1305, 1340, 1339
 774, 1305, 1306, 1341, 1340
 775, 1306, 1307, 1342, 1341
 776, 1307, 1308, 1343, 1342
 777, 1308, 1309, 1344, 1343
 778, 1309, 1310, 1345, 1344
 779, 1310, 1311, 1346, 1345
 780, 1311, 1312, 1347, 1346
 781, 1312, 1313, 1348, 1347
 782, 1313, 1314, 1349, 1348
 783, 1314, 1315, 1350, 1349
 784, 1315, 1316, 1351, 1350
 785, 1316, 1317, 1352, 1351
 786, 1317, 1318, 1353, 1352
 787, 1318, 1319, 1354, 1353
 788, 1319, 1320, 1355, 1354
 789, 1320, 1321, 1356, 1355
 790, 1321, 1322, 1357, 1356
 791, 1322, 1323, 1358, 1357
 792, 1323,   64,   65, 1358
 793,  127, 1324, 1359,  126
 794, 1324, 1325, 1360, 1359
 795, 1325, 1326, 1361, 1360
 796, 1326, 1327, 1362, 1361
 797, 1327, 1328, 1363, 1362
 798, 1328, 1329, 1364, 1363
 799, 1329, 1330, 1365, 1364
 800, 1330, 1331, 1366, 1365
 801, 1331, 1332, 1367, 1366
 802, 1332, 1333, 1368, 1367
 803, 1333, 1334, 1369, 1368
 804, 1334, 1335, 1370, 1369
 805, 1335, 1336, 1371, 1370
 806, 1336, 1337, 1372, 1371
 807, 1337, 1338, 1373, 1372
 808, 1338, 1339, 1374, 1373
 809, 1339, 1340, 1375, 1374
 810, 1340, 1341, 1376, 1375
 811, 1341, 1342, 1377, 1376
 812, 1342, 1343, 1378, 1377
 813, 1343, 1344, 1379, 1378
 814, 1344, 1345, 1380, 1379
 815, 1345, 1346, 1381, 1380
 816, 1346, 1347, 1382, 1381
 817, 1347, 1348, 1383, 1382
 818, 1348, 1349, 1384, 1383
 819, 1349, 1350, 1385, 1384
 820, 1350, 1351, 1386, 1385
 821, 1351, 1352, 1387, 1386
 822, 1352, 1353, 1388, 1387
 823, 1353, 1354, 1389, 1388
 824, 1354, 1355, 1390, 1389
 825, 1355, 1356, 1391, 1390
 826, 1356, 1357, 1392, 1391
 827, 1357, 1358, 1393, 1392
 828, 1358,   65,   66, 1393
 829,  126, 1359, 1394,  125
 830, 1359, 1360, 1395, 1394
 831, 1360, 1361, 1396, 1395
 832, 1361, 1362, 1397, 1396
 833, 1362, 1363, 1398, 1397
 834, 1363, 1364, 1399, 1398
 835, 1364, 1365, 1400, 1399
 836, 1365, 1366, 1401, 1400
 837, 1366, 1367, 1402, 1401
 838, 1367, 1368, 1403, 1402
 839, 1368, 1369, 1404, 1403
 840, 1369, 1370, 1405, 1404
 841, 1370, 1371, 1406, 1405
 842, 1371, 1372, 1407, 1406
 843, 1372, 1373, 1408, 1407
 844, 1373, 1374, 1409, 1408
 845, 1374, 1375, 1410, 1409
 846, 1375, 1376, 1411, 1410
 847, 1376, 1377, 1412, 1411
 848, 1377, 1378, 1413, 1412
 849, 1378, 1379, 1414, 1413
 850, 1379, 1380, 1415, 1414
 851, 1380, 1381, 1416, 1415
 852, 1381, 1382, 1417, 1416
 853, 1382, 1383, 1418, 1417
 854, 1383, 1384, 1419, 1418
 855, 1384, 1385, 1420, 1419
 856, 1385, 1386, 1421, 1420
 857, 1386, 1387, 1422, 1421
 858, 1387, 1388, 1423, 1422
 859, 1388, 1389, 1424, 1423
 860, 1389, 1390, 1425, 1424
 861, 1390, 1391, 1426, 1425
 862, 1391, 1392, 1427, 1426
 863, 1392, 1393, 1428, 1427
 864, 1393,   66,   67, 1428
 865,  125, 1394, 1429,  124
 866, 1394, 1395, 1430, 1429
 867, 1395, 1396, 1431, 1430
 868, 1396, 1397, 1432, 1431
 869, 1397, 1398, 1433, 1432
 870, 1398, 1399, 1434, 1433
 871, 1399, 1400, 1435, 1434
 872, 1400, 1401, 1436, 1435
 873, 1401, 1402, 1437, 1436
 874, 1402, 1403, 1438, 1437
 875, 1403, 1404, 1439, 1438
 876, 1404, 1405, 1440, 1439
 877, 1405, 1406, 1441, 1440
 878, 1406, 1407, 1442, 1441
 879, 1407, 1408, 1443, 1442
 880, 1408, 1409, 1444, 1443
 881, 1409, 1410, 1445, 1444
 882, 1410, 1411, 1446, 1445
 883, 1411, 1412, 1447, 1446
 884, 1412, 1413, 1448, 1447
 885, 1413, 1414, 1449, 1448
 886, 1414, 1415, 1450, 1449
 887, 1415, 1416, 1451, 1450
 888, 1416, 1417, 1452, 1451
 889, 1417, 1418, 1453, 1452
 890, 1418, 1419, 1454, 1453
 891, 1419, 1420, 1455, 1454
 892, 1420, 1421, 1456, 1455
 893, 1421, 1422, 1457, 1456
 894, 1422, 1423, 1458, 1457
 895, 1423, 1424, 1459, 1458
 896, 1424, 1425, 1460, 1459
 897, 1425, 1426, 1461, 1460
 898, 1426, 1427, 1462, 1461
 899, 1427, 1428, 1463, 1462
 900, 1428,   67,   68, 1463
 901,  124, 1429, 1464,  123
 902, 1429, 1430, 1465, 1464
 903, 1430, 1431, 1466, 1465
 904, 1431, 1432, 1467, 1466
 905, 1432, 1433, 1468, 1467
 906, 1433, 1434, 1469, 1468
 907, 1434, 1435, 1470, 1469
 908, 1435, 1436, 1471, 1470
 909, 1436, 1437, 1472, 1471
 910, 1437, 1438, 1473, 1472
 911, 1438, 1439, 1474, 1473
 912, 1439, 1440, 1475, 1474
 913, 1440, 1441, 1476, 1475
 914, 1441, 1442, 1477, 1476
 915, 1442, 1443, 1478, 1477
 916, 1443, 1444, 1479, 1478
 917, 1444, 1445, 1480, 1479
 918, 1445, 1446, 1481, 1480
 919, 1446, 1447, 1482, 1481
 920, 1447, 1448, 1483, 1482
 921, 1448, 1449, 1484, 1483
 922, 1449, 1450, 1485, 1484
 923, 1450, 1451, 1486, 1485
 924, 1451, 1452, 1487, 1486
 925, 1452, 1453, 1488, 1487
 926, 1453, 1454, 1489, 1488
 927, 1454, 1455, 1490, 1489
 928, 1455, 1456, 1491, 1490
 929, 1456, 1457, 1492, 1491
 930, 1457, 1458, 1493, 1492
 931, 1458, 1459, 1494, 1493
 932, 1459, 1460, 1495, 1494
 933, 1460, 1461, 1496, 1495
 934, 1461, 1462, 1497, 1496
 935, 1462, 1463, 1498, 1497
 936, 1463,   68,   69, 1498
 937,  123, 1464, 1499,  122
 938, 1464, 1465, 1500, 1499
 939, 1465, 1466, 1501, 1500
 940, 1466, 1467, 1502, 1501
 941, 1467, 1468, 1503, 1502
 942, 1468, 1469, 1504, 1503
 943, 1469, 1470, 1505, 1504
 944, 1470, 1471, 1506, 1505
 945, 1471, 1472, 1507, 1506
 946, 1472, 1473, 1508, 1507
 947, 1473, 1474, 1509, 1508
 948, 1474, 1475, 1510, 1509
 949, 1475, 1476, 1511, 1510
 950, 1476, 1477, 1512, 1511
 951, 1477, 1478, 1513, 1512
 952, 1478, 1479, 1514, 1513
 953, 1479, 1480, 1515, 1514
 954, 1480, 1481, 1516, 1515
 955, 1481, 1482, 1517, 1516
 956, 1482, 1483, 1518, 1517
 957, 1483, 1484, 1519, 1518
 958, 1484, 1485, 1520, 1519
 959, 1485, 1486, 1521, 1520
 960, 1486, 1487, 1522, 1521
 961, 1487, 1488, 1523, 1522
 962, 1488, 1489, 1524, 1523
 963, 1489, 1490, 1525, 1524
 964, 1490, 1491, 1526, 1525
 965, 1491, 1492, 1527, 1526
 966, 1492, 1493, 1528, 1527
 967, 1493, 1494, 1529, 1528
 968, 1494, 1495, 1530, 1529
 969, 1495, 1496, 1531, 1530
 970, 1496, 1497, 1532, 1531
 971, 1497, 1498, 1533, 1532
 972, 1498,   69,   70, 1533
 973,  122, 1499, 1534,  121
 974, 1499, 1500, 1535, 1534
 975, 1500, 1501, 1536, 1535
 976, 1501, 1502, 1537, 1536
 977, 1502, 1503, 1538, 1537
 978, 1503, 1504, 1539, 1538
 979, 1504, 1505, 1540, 1539
 980, 1505, 1506, 1541, 1540
 981, 1506, 1507, 1542, 1541
 982, 1507, 1508, 1543, 1542
 983, 1508, 1509, 1544, 1543
 984, 1509, 1510, 1545, 1544
 985, 1510, 1511, 1546, 1545
 986, 1511, 1512, 1547, 1546
 987, 1512, 1513, 1548, 1547
 988, 1513, 1514, 1549, 1548
 989, 1514, 1515, 1550, 1549
 990, 1515, 1516, 1551, 1550
 991, 1516, 1517, 1552, 1551
 992, 1517, 1518, 1553, 1552
 993, 1518, 1519, 1554, 1553
 994, 1519, 1520, 1555, 1554
 995, 1520, 1521, 1556, 1555
 996, 1521, 1522, 1557, 1556
 997, 1522, 1523, 1558, 1557
 998, 1523, 1524, 1559, 1558
 999, 1524, 1525, 1560, 1559
1000, 1525, 1526, 1561, 1560
1001, 1526, 1527, 1562, 1561
1002, 1527, 1528, 1563, 1562
1003, 1528, 1529, 1564, 1563
1004, 1529, 1530, 1565, 1564
1005, 1530, 1531, 1566, 1565
1006, 1531, 1532, 1567, 1566
1007, 1532, 1533, 1568, 1567
1008, 1533,   70,   71, 1568
1009,  121, 1534, 1569,  120
1010, 1534, 1535, 1570, 1569
1011, 1535, 1536, 1571, 1570
1012, 1536, 1537, 1572, 1571
1013, 1537, 1538, 1573, 1572
1014, 1538, 1539, 1574, 1573
1015, 1539, 1540, 1575, 1574
1016, 1540, 1541, 1576, 1575
1017, 1541, 1542, 1577, 1576
1018, 1542, 1543, 1578, 1577
1019, 1543, 1544, 1579, 1578
1020, 1544, 1545, 1580, 1579
1021, 1545, 1546, 1581, 1580
1022, 1546, 1547, 1582, 1581
1023, 1547, 1548, 1583, 1582
1024, 1548, 1549, 1584, 1583
1025, 1549, 1550, 1585, 1584
1026, 1550, 1551, 1586, 1585
1027, 1551, 1552, 1587, 1586
1028, 1552, 1553, 1588, 1587
1029, 1553, 1554, 1589, 1588
1030, 1554, 1555, 1590, 1589
1031, 1555, 1556, 1591, 1590
1032, 1556, 1557, 1592, 1591
1033, 1557, 1558, 1593, 1592
1034, 1558, 1559, 1594, 1593
1035, 1559, 1560, 1595, 1594
1036, 1560, 1561, 1596, 1595
1037, 1561, 1562, 1597, 1596
1038, 1562, 1563, 1598, 1597
1039, 1563, 1564, 1599, 1598
1040, 1564, 1565, 1600, 1599
1041, 1565, 1566, 1601, 1600
1042, 1566, 1567, 1602, 1601
1043, 1567, 1568, 1603, 1602
1044, 1568,   71,   72, 1603
1045,  120, 1569, 1604,  119
1046, 1569, 1570, 1605, 1604
1047, 1570, 1571, 1606, 1605
1048, 1571, 1572, 1607, 1606
1049, 1572, 1573, 1608, 1607
1050, 1573, 1574, 1609, 1608
1051, 1574, 1575, 1610, 1609
1052, 1575, 1576, 1611, 1610
1053, 1576, 1577, 1612, 1611
1054, 1577, 1578, 1613, 1612
1055, 1578, 1579, 1614, 1613
1056, 1579, 1580, 1615, 1614
1057, 1580, 1581, 1616, 1615
1058, 1581, 1582, 1617, 1616
1059, 1582, 1583, 1618, 1617
1060, 1583, 1584, 1619, 1618
1061, 1584, 1585, 1620, 1619
1062, 1585, 1586, 1621, 1620
1063, 1586, 1587, 1622, 1621
1064, 1587, 1588, 1623, 1622
1065, 1588, 1589, 1624, 1623
1066, 1589, 1590, 1625, 1624
1067, 1590, 1591, 1626, 1625
1068, 1591, 1592, 1627, 1626
1069, 1592, 1593, 1628, 1627
1070, 1593, 1594, 1629, 1628
1071, 1594, 1595, 1630, 1629
1072, 1595, 1596, 1631, 1630
1073, 1596, 1597, 1632, 1631
1074, 1597, 1598, 1633, 1632
1075, 1598, 1599, 1634, 1633
1076, 1599, 1600, 1635, 1634
1077, 1600, 1601, 1636, 1635
1078, 1601, 1602, 1637, 1636
1079, 1602, 1603, 1638, 1637
1080, 1603,   72,   73, 1638
1081,  119, 1604, 1639,  118
1082, 1604, 1605, 1640, 1639
1083, 1605, 1606, 1641, 1640
1084, 1606, 1607, 1642, 1641
1085, 1607, 1608, 1643, 1642
1086, 1608, 1609, 1644, 1643
1087, 1609, 1610, 1645, 1644
1088, 1610, 1611, 1646, 1645
1089, 1611, 1612, 1647, 1646
1090, 1612, 1613, 1648, 1647
1091, 1613, 1614, 1649, 1648
1092, 1614, 1615, 1650, 1649
1093, 1615, 1616, 1651, 1650
1094, 1616, 1617, 1652, 1651
1095, 1617, 1618, 1653, 1652
1096, 1618, 1619, 1654, 1653
1097, 1619, 1620, 1655, 1654
1098, 1620, 1621, 1656, 1655
1099, 1621, 1622, 1657, 1656
1100, 1622, 1623, 1658, 1657
1101, 1623, 1624, 1659, 1658
1102, 1624, 1625, 1660, 1659
1103, 1625, 1626, 1661, 1660
1104, 1626, 1627, 1662, 1661
1105, 1627, 1628, 1663, 1662
1106, 1628, 1629, 1664, 1663
1107, 1629, 1630, 1665, 1664
1108, 1630, 1631, 1666, 1665
1109, 1631, 1632, 1667, 1666
1110, 1632, 1633, 1668, 1667
1111, 1633, 1634, 1669, 1668
1112, 1634, 1635, 1670, 1669
1113, 1635, 1636, 1671, 1670
1114, 1636, 1637, 1672, 1671
1115, 1637, 1638, 1673, 1672
1116, 1638,   73,   74, 1673
1117,  118, 1639, 1674,  117
1118, 1639, 1640, 1675, 1674
1119, 1640, 1641, 1676, 1675
1120, 1641, 1642, 1677, 1676
1121, 1642, 1643, 1678, 1677
1122, 1643, 1644, 1679, 1678
1123, 1644, 1645, 1680, 1679
1124, 1645, 1646, 1681, 1680
1125, 1646, 1647, 1682, 1681
1126, 1647, 1648, 1683, 1682
1127, 1648, 1649, 1684, 1683
1128, 1649, 1650, 1685, 1684
1129, 1650, 1651, 1686, 1685
1130, 1651, 1652, 1687, 1686
1131, 1652, 1653, 1688, 1687
1132, 1653, 1654, 1689, 1688
1133, 1654, 1655, 1690, 1689
1134, 1655, 1656, 1691, 1690
1135, 1656, 1657, 1692, 1691
1136, 1657, 1658, 1693, 1692
1137, 1658, 1659, 1694, 1693
1138, 1659, 1660, 1695, 1694
1139, 1660, 1661, 1696, 1695
1140, 1661, 1662, 1697, 1696
1141, 1662, 1663, 1698, 1697
1142, 1663, 1664, 1699, 1698
1143, 1664, 1665, 1700, 1699
1144, 1665, 1666, 1701, 1700
1145, 1666, 1667, 1702, 1701
1146, 1667, 1668, 1703, 1702
1147, 1668, 1669, 1704, 1703
1148, 1669, 1670, 1705, 1704
1149, 1670, 1671, 1706, 1705
1150, 1671, 1672, 1707, 1706
1151, 1672, 1673, 1708, 1707
1152, 1673,   74,   75, 1708
1153,  117, 1674, 1709,  116
1154, 1674, 1675, 1710, 1709
1155, 1675, 1676, 1711, 1710
1156, 1676, 1677, 1712, 1711
1157, 1677, 1678, 1713, 1712
1158, 1678, 1679, 1714, 1713
1159, 1679, 1680, 1715, 1714
1160, 1680, 1681, 1716, 1715
1161, 1681, 1682, 1717, 1716
1162, 1682, 1683, 1718, 1717
1163, 1683, 1684, 1719, 1718
1164, 1684, 1685, 1720, 1719
1165, 1685, 1686, 1721, 1720
1166, 1686, 1687, 1722, 1721
1167, 1687, 1688, 1723, 1722
1168, 1688, 1689, 1724, 1723
1169, 1689, 1690, 1725, 1724
1170, 1690, 1691, 1726, 1725
1171, 1691, 1692, 1727, 1726
1172, 1692, 1693, 1728, 1727
1173, 1693, 1694, 1729, 1728
1174, 1694, 1695, 1730, 1729
1175, 1695, 1696, 1731, 1730
1176, 1696, 1697, 1732, 1731
1177, 1697, 1698, 1733, 1732
1178, 1698, 1699, 1734, 1733
1179, 1699, 1700, 1735, 1734
1180, 1700, 1701, 1736, 1735
1181, 1701, 1702, 1737, 1736
1182, 1702, 1703, 1738, 1737
1183, 1703, 1704, 1739, 1738
1184, 1704, 1705, 1740, 1739
1185, 1705, 1706, 1741, 1740
1186, 1706, 1707, 1742, 1741
1187, 1707, 1708, 1743, 1742
1188, 1708,   75,   76, 1743
1189,  116, 1709, 1744,  115
1190, 1709, 1710, 1745, 1744
1191, 1710, 1711, 1746, 1745
1192, 1711, 1712, 1747, 1746
1193, 1712, 1713, 1748, 1747
1194, 1713, 1714, 1749, 1748
1195, 1714, 1715, 1750, 1749
1196, 1715, 1716, 1751, 1750
1197, 1716, 1717, 1752, 1751
1198, 1717, 1718, 1753, 1752
1199, 1718, 1719, 1754, 1753
1200, 1719, 1720, 1755, 1754
1201, 1720, 1721, 1756, 1755
1202, 1721, 1722, 1757, 1756
1203, 1722, 1723, 1758, 1757
1204, 1723, 1724, 1759, 1758
1205, 1724, 1725, 1760, 1759
1206, 1725, 1726, 1761, 1760
1207, 1726, 1727, 1762, 1761
1208, 1727, 1728, 1763, 1762
1209, 1728, 1729, 1764, 1763
1210, 1729, 1730, 1765, 1764
1211, 1730, 1731, 1766, 1765
1212, 1731, 1732, 1767, 1766
1213, 1732, 1733, 1768, 1767
1214, 1733, 1734, 1769, 1768
1215, 1734, 1735, 1770, 1769
1216, 1735, 1736, 1771, 1770
1217, 1736, 1737, 1772, 1771
1218, 1737, 1738, 1773, 1772
1219, 1738, 1739, 1774, 1773
1220, 1739, 1740, 1775, 1774
1221, 1740, 1741, 1776, 1775
1222, 1741, 1742, 1777, 1776
1223, 1742, 1743, 1778, 1777
1224, 1743,   76,   77, 1778
1225,  115, 1744, 1779,  114
1226, 1744, 1745, 1780, 1779
1227, 1745, 1746, 1781, 1780
1228, 1746, 1747, 1782, 1781
1229, 1747, 1748, 1783, 1782
1230, 1748, 1749, 1784, 1783
1231, 1749, 1750, 1785, 1784
1232, 1750, 1751, 1786, 1785
1233, 1751, 1752, 1787, 1786
1234, 1752, 1753, 1788, 1787
1235, 1753, 1754, 1789, 1788
1236, 1754, 1755, 1790, 1789
1237, 1755, 1756, 1791, 1790
1238, 1756, 1757, 1792, 1791
1239, 1757, 1758, 1793, 1792
1240, 1758, 1759, 1794, 1793
1241, 1759, 1760, 1795, 1794
1242, 1760, 1761, 1796, 1795
1243, 1761, 1762, 1797, 1796
1244, 1762, 1763, 1798, 1797
1245, 1763, 1764, 1799, 1798
1246, 1764, 1765, 1800, 1799
1247, 1765, 1766, 1801, 1800
1248, 1766, 1767, 1802, 1801
1249, 1767, 1768, 1803, 1802
1250, 1768, 1769, 1804, 1803
1251, 1769, 1770, 1805, 1804
1252, 1770, 1771, 1806, 1805
1253, 1771, 1772, 1807, 1806
1254, 1772, 1773, 1808, 1807
1255, 1773, 1774, 1809, 1808
1256, 1774, 1775, 1810, 1809
1257, 1775, 1776, 1811, 1810
1258, 1776, 1777, 1812, 1811
1259, 1777, 1778, 1813, 1812
1260, 1778,   77,   78, 1813
1261,  114, 1779,  113,    4
1262, 1779, 1780,  112,  113
1263, 1780, 1781,  111,  112
1264, 1781, 1782,  110,  111
1265, 1782, 1783,  109,  110
1266, 1783, 1784,  108,  109
1267, 1784, 1785,  107,  108
1268, 1785, 1786,  106,  107
1269, 1786, 1787,  105,  106
1270, 1787, 1788,  104,  105
1271, 1788, 1789,  103,  104
1272, 1789, 1790,  102,  103
1273, 1790, 1791,  101,  102
1274, 1791, 1792,  100,  101
1275, 1792, 1793,   99,  100
1276, 1793, 1794,   98,   99
1277, 1794, 1795,   97,   98
1278, 1795, 1796,   96,   97
1279, 1796, 1797,   95,   96
1280, 1797, 1798,   94,   95
1281, 1798, 1799,   93,   94
1282, 1799, 1800,   92,   93
1283, 1800, 1801,   91,   92
1284, 1801, 1802,   90,   91
1285, 1802, 1803,   89,   90
1286, 1803, 1804,   88,   89
1287, 1804, 1805,   87,   88
1288, 1805, 1806,   86,   87
1289, 1806, 1807,   85,   86
1290, 1807, 1808,   84,   85
1291, 1808, 1809,   83,   84
1292, 1809, 1810,   82,   83
1293, 1810, 1811,   81,   82
1294, 1811, 1812,   80,   81
1295, 1812, 1813,   79,   80
1296, 1813,   78,    3,   79
1322, 2020,  149,  150, 1964
1323,  151, 1985, 1964,  150
1324, 1934, 1963, 1818, 2021
1325, 1932, 1966, 2023, 1820
1326, 1932, 1820, 2029, 1936
1327, 2109, 2083, 2135, 1822
1328, 1960, 1937, 2024, 1823
1329, 2110, 2092, 2151, 1824
1330,  249, 1944, 1943,  248
1331, 1945,  247,  248, 1943
1332, 1941, 1947, 2167, 1827
1333, 1940, 1948, 2025, 1828
1334, 1939, 1949, 2053, 1829
1335, 1830, 2111, 2089, 2437
1336, 1959, 1951, 2026, 1831
1337, 1832, 2112, 2093, 2132
1338, 1970,  232,  233, 1958
1339, 1971,  230,  231, 1957
1340, 1955, 1973, 2241, 1835
1341, 1954, 1974, 2027, 1836
1342, 1952, 1975, 2050, 1837
1343, 1980, 2415, 1976, 2421
1344, 1952,  222,  223, 1975
1345, 1977,  153,  154, 1999
1346, 1838, 2067, 1999, 2090
1347,  157, 2016, 1984,  156
1348, 2187, 1857, 2204, 2216
1349, 1978,  162,  163, 1998
1350, 1998,  163,  164, 2334
1351, 2334,  164,  165, 2019
1352, 2019, 2017, 2036, 2324
1353, 2310, 2414, 2412, 2327
1354, 2442, 2331, 2456, 2308
1355, 2336, 2311, 2292, 2315
1356, 2282, 2498, 2297, 2290
1357, 2303, 2265, 2277, 1902
1358, 2265, 2240, 1892, 2248
1359, 2247, 2227, 2512, 2262
1360, 2503, 1894, 2288, 2319
1361, 2330, 2307, 2326, 1907
1362,  201, 2000, 1991,  200
1363, 2300, 2015, 2306, 1885
1364,  207, 1992, 2001,  206
1365, 1992,  207,  208, 2259
1366, 2259,  208,  209, 1993
1367, 1872, 2259, 1993, 2251
1368, 2438, 2104, 2445, 2078
1369, 1833, 2073, 2060, 2051
1370, 2060, 2450, 2084, 2068
1371, 2085, 2073, 1833, 2113
1372, 2115, 1852, 2073, 2085
1373, 2182, 2140, 2471, 2490
1374, 2207, 2477, 2195, 2185
1375, 1897, 2291, 2280, 2475
1376, 2367, 2000, 2372, 1898
1377,  167, 2413, 2017,  166
1378,  169, 1982, 1995,  168
1379, 2331, 2442, 2341, 2366
1380, 1900, 2356, 2336, 2315
1381, 1911, 2305, 2317, 2340
1382, 1912, 2497, 2320, 2333
1383, 2504, 2502, 2299, 2325
1384, 2316, 2289, 2304, 2493
1385, 2380, 2335, 2343, 2371
1386, 1906, 2342, 2328, 2309
1387, 2014, 2040, 1916, 2389
1388, 2328, 2342, 2365, 2322
1389, 1995, 1982, 2031, 2412
1390, 2418, 2417,  171,  172
1391, 2012, 2402, 1917, 2404
1392, 2396, 1996,  176,  177
1393, 2422, 2045, 2009, 2011
1394,  180,  181, 2002, 2420
1395,  181,  182, 2010, 2002
1396,  182,  183, 1929, 2010
1397,  184, 1929,  183,    4
1398, 1928, 2405, 2034, 1986
1399, 1928,  187,  188, 1987
1400, 2013,  189,  190, 2408
1401, 2408,  190,  191, 1988
1402, 1926, 2408, 1988, 2032
1403, 2339, 2474, 2348, 2361
1404, 2361, 2348, 1919, 2377
1405, 2359, 2348, 2474, 1912
1406, 2373, 1918, 2388, 2393
1407, 2400, 2401, 2406, 1927
1408, 2002, 2046, 1817, 2420
1409, 2423, 2003, 1986, 2034
1410,  186, 1986, 2003,  185
1411, 2386, 2008, 2395, 1921
1412, 2362, 1914, 2483, 2462
1413, 2332, 2462, 2483, 1913
1414, 1989,  195,  196, 2389
1415, 2389,  196,  197, 2014
1416, 1990,  198,  199, 2358
1417, 2358, 1908, 2349, 1990
1418, 2174, 2006, 2166, 1855
1419, 2104, 2438, 1835, 2241
1420, 2146, 2440, 2056, 2027
1421, 2055, 2104, 2241, 2028
1422, 2419, 2416, 1994, 2042
1423,  221, 1976, 1953,  220
1424,  219, 2004,  218,    6
1425, 1954,  224,  225, 1974
1426, 1955,  226,  227, 1973
1427, 1956,  229,  230, 1971
1428, 1957,  231,  232, 1970
1429, 1958,  233,  234, 1969
1430,  236, 1951, 1959,  235
1431, 1938,  237,  238, 1950
1432, 1939,  239,  240, 1949
1433, 1940,  241,  242, 1948
1434, 1941,  243,  244, 1947
1435, 1942,  246,  247, 1945
1436, 1930,  250,  251, 1968
1437,  253, 1937, 1960,  252
1438, 1931,  254,  255, 1967
1439,  257, 1936, 1961,  256
1440, 1932,  258,  259, 1966
1441,  261, 1935, 1962,  260
1442,  263, 1963, 1934,  262
1443, 1933,  265,  266, 1964
1444, 2123, 1984, 2016, 2043
1445, 2244, 2018, 1983, 2047
1446, 2038, 2314, 1978, 1998
1447, 2272, 2298, 2254, 2236
1448, 2254, 2285, 2267, 1874
1449, 1887, 2276, 2267, 2285
1450, 1887, 2310, 2302, 2276
1451, 2016,  157,  158, 2270
1452, 2409, 1979, 2039, 2426
1453, 2390, 2394, 1997, 1996
1454, 1922, 2045, 2430, 2397
1455, 2347, 2384, 2379, 1918
1456, 2407, 2347, 2340, 1910
1457, 2384, 2347, 2407, 2387
1458,  175,  176, 1996, 1997
1459, 2054, 2067, 1838, 2095
1460, 2066, 2067, 1818, 2049
1461, 2107, 2081, 2058, 2125
1462, 2082, 2454, 2071, 2153
1463, 2434, 2433, 2072, 2455
1464, 2064, 2024, 1822, 2118
1465, 2064, 2076, 1823, 2024
1466, 1845, 2465, 2116, 2136
1467, 2061, 2074, 2087, 2466
1468, 2448, 2079, 2105, 2057
1469, 2105, 1847, 2106, 1827
1470, 2070, 2088, 2062, 2436
1471, 2062, 2075, 1829, 2053
1472, 2065, 2026, 1830, 2119
1473, 2065, 2077, 1831, 2026
1474, 2121, 2093, 2077, 1850
1475, 2071, 2432, 2058, 1840
1476, 2433, 2059, 2454, 2072
1477, 2135, 2455, 2114, 1842
1478, 1843, 2092, 2076, 2091
1479, 2086, 2074, 1825, 2108
1480, 1826, 2052, 2061, 2069
1481, 1827, 2167, 2057, 2105
1482, 2117, 2089, 2075, 1848
1483, 2419, 2005,  212,  213
1484,  210, 2006, 1993,  209
1485, 2152, 2144, 1856, 2244
1486, 2144, 2458, 2457, 1839
1487, 2170, 2128, 2152, 1857
1488, 2165, 2139, 2180, 1859
1489, 2165, 2200, 1842, 2139
1490, 1861, 2178, 2169, 2189
1491, 2181, 2141, 1844, 2178
1492, 2486, 2491, 2159, 2130
1493, 2156, 2102, 2478, 2479
1494, 1865, 2129, 2155, 2214
1495, 2171, 2129, 1865, 2186
1496, 2142, 2177, 2163, 1849
1497, 2199, 1849, 2163, 1867
1498, 1869, 2179, 2168, 2190
1499, 2168, 2148, 2482, 2481
1500, 2461, 2153, 2071, 1840
1501, 2139, 1842, 2114, 2161
1502, 2484, 2091, 2459, 2097
1503, 1860, 2169, 2150, 2127
1504, 2466, 2098, 1846, 2448
1505, 2188, 2079, 2102, 2156
1506, 2070, 2452, 2154, 2088
1507, 2142, 1849, 2134, 2117
1508, 1850, 2094, 2096, 2126
1509, 1870, 2160, 2137, 2182
1510, 2157, 2131, 1871, 2453
1511, 2438, 2078, 2441, 2145
1512, 2451, 2084, 2460, 2099
1513, 2042, 2143, 2005, 2419
1514, 2216, 2204, 1815, 2314
1515, 2204, 1857, 2047, 1815
1516, 2212, 2236, 2201, 2463
1517, 1874, 2206, 2472, 2201
1518, 2232, 2196, 2208, 2487
1519, 2184, 2210, 2198, 1863
1520, 1878, 2217, 2198, 2210
1521, 1880, 2231, 2224, 2225
1522, 1880, 2246, 2203, 2231
1523, 2237, 2202, 2213, 2229
1524, 2235, 2190, 1868, 2191
1525, 2208, 2196, 2184, 1862
1526, 1863, 2198, 2211, 2479
1527, 2203, 1865, 2214, 2231
1528, 2186, 2243, 2194, 2171
1529, 1867, 2213, 2202, 2183
1530, 1868, 2147, 2183, 2191
1531, 2209, 2197, 2185, 2195
1532, 2001, 2041, 1885, 2306
1533, 1871, 2160, 2185, 2197
1534,  160, 1983, 2018,  159
1535, 1874, 2267, 2249, 2206
1536, 2284, 2260, 2264, 1888
1537, 2252, 2257, 2287, 2489
1538, 2220, 2223, 2234, 1891
1539, 2499, 1891, 2505, 2222
1540, 1879, 2228, 2225, 2224
1541, 2507, 1880, 2225, 1893
1542, 1894, 2286, 2279, 2247
1543, 2268, 1895, 2275, 2250
1544, 2261, 2488, 2283, 2475
1545, 2313, 2261, 2295, 2238
1546, 2260, 1876, 2312, 1875
1547, 2287, 2281, 1889, 2292
1548, 2223, 2220, 1878, 2210
1549, 2218, 2219, 2226, 1879
1550, 2501, 2227, 2247, 2279
1551, 2253, 2268, 2500, 2271
1552, 2205, 2250, 1882, 2191
1553, 2007, 2044, 1898, 2372
1554, 2007,  203,  204, 2015
1555, 2296, 2294, 1889, 2281
1556, 2292, 1890, 2489, 2287
1557, 1891, 2234, 2258, 2266
1558, 2222, 2248, 1892, 2226
1559, 2509, 2240, 2269, 2511
1560, 1894, 2247, 2262, 2288
1561, 2319, 2309, 2328, 2503
1562, 2275, 2301, 1896, 2263
1563, 2283, 2293, 1897, 2475
1564, 2280, 2291, 2273, 2256
1565, 2344, 1901, 2336, 2356
1566, 2282, 2290, 2492, 1902
1567, 2278, 2299, 2508, 2510
1568, 2329, 2337, 2289, 2316
1569, 2355, 2351, 2343, 1905
1570, 1981,  194,  195, 1989
1571,  192, 2008, 1988,  191
1572, 1924, 2443, 2383, 2393
1573, 2375, 2391, 2382, 2363
1574, 1920, 2361, 2377, 2381
1575, 1981, 2033, 1921, 2395
1576, 2401, 2400, 2443, 1924
1577, 2405, 2400, 1927, 2034
1578, 1987, 2035, 2399, 1928
1579, 1925, 2392, 2398, 2399
1580,  177,  178, 2009, 2396
1581, 1999,  154,  155, 2090
1582,  172,  173, 2012, 2418
1583,  179,  180, 2420, 2011
1584, 2011, 2009,  178,  179
1585, 2039, 2418, 2012, 2404
1586, 2411,  170,  171, 2417
1587,  170, 2411, 1982,  169
1588, 2413,  167,  168, 1995
1589,  166, 2017, 2019,  165
1590, 2323,  161,  162, 1978
1591,  161, 2323, 1983,  160
1592, 2270,  158,  159, 2018
1593, 2030,  152,  153, 1977
1594, 1985, 1814, 1933, 1964
1595,  149, 2020,  268,    5
1596,  185, 2003, 1929,  184
1597,  187, 1928, 1986,  186
1598, 1987,  188,  189, 2013
1599, 2395,  193,  194, 1981
1600,  198, 1990, 2014,  197
1601, 2372,  202,  203, 2007
1602, 2306,  205,  206, 2001
1603, 2166,  211,  212, 2005
1604, 1994, 2416, 2048, 1837
1605,  214,  215, 2048, 2416
1606, 2415, 2004, 1953, 1976
1607,  265, 1933, 1965,  264
1608,  262, 1934, 1935,  261
1609,  260, 1962, 1966,  259
1610,  258, 1932, 1936,  257
1611,  256, 1961, 1967,  255
1612,  254, 1931, 1937,  253
1613,  252, 1960, 1968,  251
1614,  250, 1930, 1944,  249
1615, 1945, 1943, 1825, 2052
1616,  246, 1942, 1946,  245
1617, 1826, 2022, 1946, 1942
1618, 2124, 1941, 1827, 2106
1619, 1940, 1828, 2053, 1949
1620, 1950, 1939, 1829, 2111
1621,  237, 1938, 1951,  236
1622,  235, 1959, 1969,  234
1623, 1958, 1832, 2113, 1970
1624, 1957, 1833, 2051, 1971
1625,  229, 1956, 1972,  228
1626, 2028, 1972, 1956, 1834
1627, 2146, 1955, 1835, 2138
1628, 1954, 1836, 2050, 1975
1629,  222, 1952, 1976,  221
1630, 2004,  219,  220, 1953
1631, 2086, 2108, 1824, 2133
1632, 1931, 1822, 2024, 1937
1633,  264, 1965, 1963,  263
1634, 1935, 1934, 2021, 2158
1635, 1962, 1935, 2158, 1819
1636, 1961, 1936, 2029, 1821
1637, 1950,  238,  239, 1939
1638, 1938, 1830, 2026, 1951
1639, 1949,  240,  241, 1940
1640, 2089, 2111, 1829, 2075
1641, 1948,  242,  243, 1941
1642, 1947,  244,  245, 1946
1643, 2124, 2025, 1948, 1941
1644, 1942, 1945, 2052, 1826
1645, 1944, 1930, 1824, 2108
1646, 1947, 1946, 2022, 2167
1647, 1975,  223,  224, 1954
1648, 1952, 1837, 2421, 1976
1649, 1974,  225,  226, 1955
1650, 1973,  227,  228, 1972
1651, 2146, 2027, 1974, 1955
1652, 1956, 1971, 2051, 1834
1653, 2085, 2113, 1832, 2132
1654, 1959, 1831, 2112, 1969
1655, 1968, 1960, 1823, 2110
1656, 1961, 1821, 2109, 1967
1657, 2125, 1962, 1819, 2107
1658, 1963, 1965, 2049, 1818
1659,  267, 2020, 1964,  266
1660, 1965, 1933, 1814, 2049
1661, 2125, 2023, 1966, 1962
1662, 2109, 1821, 2434, 2083
1663, 2092, 2110, 1823, 2076
1664, 2093, 2112, 1831, 2077
1665, 1973, 1972, 2028, 2241
1666, 1980, 2421, 1837, 2048
1667, 2424, 2030, 1977, 2066
1668, 2038, 1998, 2338, 2298
1669, 1815, 2323, 1978, 2314
1670, 1979, 1816, 2411, 2417
1671,  215,  216, 1980, 2048
1672, 2415, 1980,  216,  217
1673, 1989, 2385, 2033, 1981
1674, 1899, 2410, 2341, 2442
1675, 2043, 2016, 2270, 1856
1676, 1838, 2090, 1984, 2123
1677, 1985,  151,  152, 2030
1678, 2431, 2013, 2408, 1926
1679, 2008,  192,  193, 2395
1680, 2385, 2376, 1915, 2033
1681, 2330, 2349, 1908, 2318
1682, 2040, 2014, 1990, 2349
1683, 1908, 2358, 1991, 2353
1684, 2000,  201,  202, 2372
1685, 2453, 1871, 2197, 2041
1686, 2041, 2001, 1992, 2245
1687, 2006,  210,  211, 2166
1688, 2251, 1993, 2006, 2037
1689, 2063, 2050, 1836, 2427
1690, 2414, 2413, 1995, 2412
1691, 2394, 2390, 2379, 2384
1692, 1917, 2402, 1997, 2394
1693,  174,  175, 1997, 2402
1694, 1818, 2067, 2054, 2021
1695, 2291, 1897, 2367, 1898
1696, 2423, 2010, 1929, 2003
1697,  217,  218, 2004, 2415
1698, 1855, 2166, 2005, 2143
1699, 1854, 2174, 2145, 2441
1700, 2015,  204,  205, 2306
1701, 2363, 2386, 2374, 2350
1702, 1922, 2396, 2009, 2045
1703, 2423, 2046, 2002, 2010
1704, 2401, 2446, 2403, 2406
1705, 2402, 2012,  173,  174
1706, 2387, 1909, 2404, 1917
1707, 2209, 1884, 2300, 1885
1708, 2043, 1856, 2144, 1839
1709, 2036, 2414, 2310, 1887
1710, 1856, 2270, 2018, 2244
1711, 1886, 2334, 2019, 2324
1712, 2158, 2021, 2054, 2122
1713, 2439, 2022, 1826, 2069
1714, 2167, 2022, 2439, 2057
1715, 2023, 2125, 2058, 2432
1716, 2080, 2435, 2124, 2106
1717, 2055, 2028, 1834, 2068
1718, 1820, 2059, 2433, 2029
1719, 1814, 1985, 2030, 2424
1720, 1816, 2031, 1982, 2411
1721, 1899, 2327, 2412, 2031
1722, 2382, 2032, 2386, 2363
1723, 2032, 1988, 2008, 2386
1724, 2033, 1915, 2370, 1921
1725, 2034, 1927, 2046, 2423
1726, 2399, 2035, 2431, 1925
1727, 2035, 1987, 2013, 2431
1728, 2414, 2036, 2017, 2413
1729, 2285, 2324, 2036, 1887
1730, 1897, 2293, 2353, 2367
1731, 2353, 1991, 2000, 2367
1732, 1872, 2251, 2157, 2453
1733, 2066, 1977, 1999, 2067
1734, 1873, 2216, 2314, 2038
1735, 2368, 2409, 2426, 2378
1736, 2418, 2039, 1979, 2417
1737, 2040, 1907, 2354, 1916
1738, 1992, 2259, 1872, 2245
1739, 2063, 1994, 1837, 2050
1740, 2056, 2440, 2143, 2425
1741, 2447, 2123, 2043, 1839
1742, 2273, 1884, 2233, 2256
1743, 2044, 2007, 2015, 2300
1744, 1922, 2390, 1996, 2396
1745, 2046, 1927, 2406, 1817
1746, 1983, 2323, 1815, 2047
1747, 1857, 2152, 2244, 2047
1748, 2049, 1814, 2424, 2066
1749, 2425, 2063, 2427, 2056
1750, 2061, 2052, 1825, 2074
1751, 2053, 1828, 2436, 2062
1752, 2122, 2428, 1819, 2158
1753, 2027, 2056, 2427, 1836
1754, 2439, 2069, 2448, 2057
1755, 2435, 2080, 2070, 2436
1756, 1840, 2058, 2081, 2100
1757, 2432, 2059, 1820, 2023
1758, 2072, 2454, 2082, 1841
1759, 1834, 2051, 2060, 2068
1760, 2087, 2473, 2098, 2466
1761, 2075, 2062, 2088, 1848
1762, 2042, 1994, 2063, 2425
1763, 2459, 2064, 2118, 2097
1764, 2091, 2076, 2064, 2459
1765, 2094, 2065, 2119, 2096
1766, 2077, 2065, 2094, 1850
1767, 2078, 2445, 1853, 2103
1768, 2448, 1846, 2102, 2079
1769, 2059, 2432, 2071, 2454
1770, 2161, 2114, 1841, 2175
1771, 2455, 2135, 2083, 2434
1772, 2450, 1852, 2460, 2084
1773, 2465, 2087, 2074, 2086
1774, 2142, 2117, 1848, 2162
1775, 2089, 2117, 2134, 2437
1776, 2150, 2120, 1843, 2127
1777, 2133, 1824, 2151, 1844
1778, 2121, 1850, 2148, 2476
1779, 2078, 2103, 1854, 2441
1780, 1847, 2105, 2079, 2188
1781, 1847, 2101, 2080, 2106
1782, 2452, 2070, 2080, 2101
1783, 2457, 2100, 2081, 2429
1784, 2109, 1822, 1931, 1967
1785, 1853, 2068, 2084, 2451
1786, 2113, 1833, 1957, 1970
1787, 2115, 2085, 2132, 1851
1788, 2108, 1825, 1943, 1944
1789, 2086, 2133, 2116, 2465
1790, 2087, 2465, 1845, 2473
1791, 2111, 1830, 1938, 1950
1792, 2090,  155,  156, 1984
1793, 2110, 1824, 1930, 1968
1794, 2112, 1832, 1958, 1969
1795, 2095, 1838, 2123, 2447
1796, 2095, 2428, 2122, 2054
1797, 2147, 2481, 2469, 2199
1798, 2200, 2165, 1859, 2149
1799, 2484, 2097, 2200, 2149
1800, 2473, 1845, 2486, 2098
1801, 2098, 2486, 2130, 1846
1802, 2137, 2099, 2460, 2470
1803, 2160, 1871, 2099, 2137
1804, 2152, 2128, 2458, 2144
1805, 2155, 2101, 2172, 1864
1806, 2101, 2155, 2129, 2452
1807, 2102, 1846, 2130, 2478
1808, 2188, 2156, 2467, 2172
1809, 2131, 2103, 1853, 2451
1810, 2173, 2103, 2131, 2157
1811, 2138, 1835, 2438, 2145
1812, 2072, 1841, 2114, 2455
1813, 2135, 1842, 2118, 1822
1814, 2471, 2140, 1852, 2115
1815, 1844, 2141, 2116, 2133
1816, 2134, 2449, 2444, 2437
1817, 2118, 1842, 2200, 2097
1818, 2449, 2096, 2119, 2444
1819, 2092, 1843, 2120, 2151
1820, 2121, 1851, 2132, 2093
1821, 2428, 2095, 2447, 1839
1822, 2126, 2482, 2148, 1850
1823, 2127, 1843, 2091, 2484
1824, 2170, 2153, 2461, 2128
1825, 1840, 2100, 2128, 2461
1826, 2129, 2171, 2154, 2452
1827, 2479, 2211, 2467, 2156
1828, 2453, 2041, 2245, 1872
1829, 2159, 1862, 2184, 1863
1830, 2137, 2470, 2140, 2182
1831, 2185, 2160, 1870, 2207
1832, 2180, 2139, 2161, 1858
1833, 2177, 2142, 2162, 1866
1834, 2174, 1854, 2037, 2006
1835, 2145, 2174, 1855, 2440
1836, 1867, 2183, 2147, 2199
1837, 1868, 2168, 2481, 2147
1838, 2485, 2149, 1859, 2463
1839, 2484, 2149, 1860, 2127
1840, 2178, 2120, 2150, 2169
1841, 1844, 2151, 2120, 2178
1842, 2458, 2128, 2100, 2457
1843, 2170, 2193, 2175, 2082
1844, 2171, 2194, 2176, 2154
1845, 2088, 2154, 2176, 1848
1846, 2172, 2101, 1847, 2188
1847, 2173, 2157, 2251, 2037
1848, 2099, 1871, 2131, 2451
1849, 1867, 2163, 2177, 2213
1850, 2181, 1861, 2208, 1862
1851, 2164, 2476, 2179, 2490
1852, 2182, 1869, 2207, 1870
1853, 2490, 2179, 1869, 2182
1854, 2169, 1860, 2192, 2189
1855, 2170, 1857, 2187, 2193
1856, 2193, 1858, 2161, 2175
1857, 2176, 2194, 2162, 1848
1858, 2173, 2037, 1854, 2103
1859, 2476, 2164, 1851, 2121
1860, 2148, 2168, 2179, 2476
1861, 1859, 2180, 2212, 2463
1862, 2181, 1862, 2136, 2141
1863, 2183, 2202, 2205, 2191
1864, 2184, 2196, 1877, 2210
1865, 2186, 1865, 2203, 2215
1866, 2243, 2186, 2215, 1881
1867, 2242, 2187, 2216, 1873
1868, 2193, 2187, 2242, 1858
1869, 1875, 2312, 2189, 2192
1870, 2313, 2238, 2190, 2235
1871, 2235, 2191, 1882, 2488
1872, 1860, 2149, 2485, 2192
1873, 1866, 2162, 2194, 2243
1874, 2300, 1884, 2273, 2044
1875, 2223, 2210, 1877, 2252
1876, 1885, 2041, 2197, 2209
1877, 2211, 2198, 2217, 2480
1878, 2096, 2449, 2199, 2469
1879, 2229, 2213, 2177, 1866
1880, 1875, 2192, 2206, 2249
1881, 2472, 2206, 2192, 2485
1882, 2238, 2255, 1869, 2190
1883, 1883, 2255, 2238, 2295
1884, 2239, 2487, 2208, 1861
1885, 1876, 2487, 2239, 2312
1886, 1884, 2209, 2195, 2233
1887, 2468, 2480, 2218, 2221
1888, 2468, 2467, 2211, 2480
1889, 1858, 2230, 2212, 2180
1890, 1864, 2468, 2221, 2214
1891, 2221, 2224, 2231, 2214
1892, 2271, 2243, 1881, 2253
1893, 2242, 1873, 2272, 2230
1894, 2219, 2217, 1878, 2499
1895, 2217, 2219, 2218, 2480
1896, 2221, 2218, 1879, 2224
1897, 2499, 1878, 2220, 1891
1898, 2222, 2226, 2219, 2499
1899, 2248, 2222, 2505, 2506
1900, 2234, 2223, 2252, 2489
1901, 2228, 1879, 2226, 1892
1902, 2246, 2507, 2227, 2501
1903, 1893, 2512, 2227, 2507
1904, 2228, 1892, 2240, 2509
1905, 2225, 2228, 2509, 1893
1906, 2229, 1866, 2243, 2271
1907, 2237, 2229, 2271, 2500
1908, 2230, 2272, 2236, 2212
1909, 2495, 2232, 2494, 2257
1910, 2477, 2256, 2233, 2195
1911, 1890, 2258, 2234, 2489
1912, 2189, 2312, 2239, 1861
1913, 1874, 2201, 2236, 2254
1914, 2205, 2237, 2500, 2250
1915, 2255, 1883, 2256, 2477
1916, 2494, 2232, 2487, 1876
1917, 2278, 2240, 2265, 1903
1918, 2274, 2511, 2269, 1904
1919, 2215, 2203, 2246, 2501
1920, 2277, 2265, 2248, 2506
1921, 2249, 2267, 2276, 2264
1922, 2252, 1877, 2495, 2257
1923, 2501, 2279, 1881, 2215
1924, 2268, 2253, 2286, 1895
1925, 2254, 2298, 2338, 2285
1926, 2207, 1869, 2255, 2477
1927, 2280, 2256, 1883, 2295
1928, 2257, 2494, 2281, 2287
1929, 1890, 2297, 2498, 2258
1930, 2282, 2266, 2258, 2498
1931, 2264, 2260, 1875, 2249
1932, 2294, 2296, 2284, 1888
1933, 2263, 2283, 2488, 1882
1934, 2295, 2261, 2475, 2280
1935, 2511, 2274, 2262, 2512
1936, 2288, 2262, 2274, 2337
1937, 2283, 2263, 1896, 2293
1938, 1882, 2250, 2275, 2263
1939, 2277, 2266, 2282, 1902
1940, 2275, 1895, 2322, 2301
1941, 2240, 2278, 2510, 2269
1942, 2298, 2272, 1873, 2038
1943, 1898, 2044, 2273, 2291
1944, 2274, 1904, 2289, 2337
1945, 1888, 2264, 2276, 2302
1946, 2299, 2278, 1903, 2325
1947, 2253, 1881, 2279, 2286
1948, 2296, 1876, 2260, 2284
1949, 2309, 2319, 2335, 1906
1950, 2304, 2289, 1904, 2508
1951, 2344, 1910, 2357, 1901
1952, 2492, 2317, 2305, 1902
1953, 2331, 2366, 2352, 2456
1954, 2297, 2311, 2336, 1901
1955, 1896, 2307, 2318, 2293
1956, 2353, 2293, 2318, 1908
1957, 2308, 2294, 1888, 2302
1958, 2456, 2352, 1889, 2294
1959, 1876, 2296, 2281, 2494
1960, 1890, 2292, 2311, 2297
1961, 2290, 2297, 1901, 2357
1962, 2285, 2338, 1886, 2324
1963, 2304, 2502, 2321, 2493
1964, 2328, 2322, 1895, 2503
1965, 2326, 2301, 2322, 2365
1966, 2302, 2310, 2327, 2308
1967, 2303, 1902, 2305, 2320
1968, 1912, 2474, 2504, 2325
1969, 1903, 2303, 2320, 2497
1970, 2313, 2235, 2488, 2261
1971, 2292, 1889, 2352, 2315
1972, 1914, 2329, 2316, 2483
1973, 1910, 2340, 2317, 2357
1974, 1900, 2315, 2352, 2366
1975, 1905, 2319, 2288, 2337
1976, 2335, 2319, 1905, 2343
1977, 2320, 2305, 1911, 2333
1978, 2327, 1899, 2442, 2308
1979, 1905, 2337, 2329, 2355
1980, 2330, 1907, 2040, 2349
1981, 2410, 1899, 2031, 1816
1982, 2345, 2332, 1913, 2321
1983, 2464, 2332, 2345, 1920
1984, 2346, 2333, 1911, 2360
1985, 2333, 2346, 2359, 1912
1986, 1998, 2334, 1886, 2338
1987, 2351, 2355, 2329, 1914
1988, 2345, 2339, 2361, 1920
1989, 2345, 2321, 2496, 2339
1990, 2368, 2341, 2410, 2409
1991, 2366, 2341, 2368, 1900
1992, 2354, 2365, 2342, 2376
1993, 2380, 2376, 2342, 1906
1994, 2351, 2364, 2371, 2343
1995, 2369, 2344, 2356, 2378
1996, 2360, 1911, 2340, 2347
1997, 2373, 2359, 2346, 1918
1998, 2369, 2407, 1910, 2344
1999, 2374, 2362, 2462, 2350
2000, 1914, 2362, 2364, 2351
2001, 2365, 2354, 1907, 2326
2002, 2290, 2357, 2317, 2492
2003, 2358,  199,  200, 1991
2004, 1919, 2348, 2359, 2373
2005, 1918, 2346, 2360, 2347
2006, 1921, 2370, 2374, 2386
2007, 2370, 2364, 2362, 2374
2008, 2363, 2350, 2464, 2375
2009, 1915, 2371, 2364, 2370
2010, 1900, 2368, 2378, 2356
2011, 1909, 2369, 2378, 2426
2012, 2407, 2369, 1909, 2387
2013, 2380, 2371, 1915, 2376
2014, 2388, 1918, 2379, 2397
2015, 2381, 2375, 2464, 1920
2016, 2391, 2375, 2381, 1925
2017, 1916, 2354, 2376, 2385
2018, 2377, 1919, 2383, 2392
2019, 2381, 2377, 2392, 1925
2020, 2393, 2383, 1919, 2373
2021, 2397, 2379, 2390, 1922
2022, 2382, 2391, 1926, 2032
2023, 2392, 2383, 2443, 2398
2024, 2394, 2384, 2387, 1917
2025, 2385, 1989, 2389, 1916
2026, 2039, 2404, 1909, 2426
2027, 2446, 2401, 1924, 2393
2028, 1923, 2388, 2397, 2430
2029, 2398, 2443, 2400, 2405
2030, 1923, 2430, 2403, 2446
2031, 1817, 2406, 2403, 2422
2032, 2045, 2422, 2403, 2430
2033, 2405, 1928, 2399, 2398
2034, 2431, 1926, 2391, 1925
2035, 1816, 1979, 2409, 2410
2036, 2416, 2419,  213,  214
2037, 2420, 1817, 2422, 2011
2038, 2429, 2428, 1839, 2457
2039, 2107, 1819, 2428, 2429
2040, 1821, 2029, 2433, 2434
2041, 1828, 2025, 2435, 2436
2042, 2119, 1830, 2437, 2444
2043, 2449, 2134, 1849, 2199
2044, 2055, 2068, 1853, 2445
2045, 1923, 2446, 2393, 2388
2046, 2440, 2146, 2138, 2145
2047, 2466, 2448, 2069, 2061
2048, 2450, 2060, 2073, 1852
2049, 2470, 2460, 1852, 2140
2050, 2332, 2464, 2350, 2462
2051, 2463, 2201, 2472, 2485
2052, 1864, 2172, 2467, 2468
2053, 2471, 2115, 1851, 2164
2054, 2486, 1845, 2136, 2491
2055, 2474, 2339, 2496, 2504
2056, 2478, 2130, 2159, 1863
2057, 2126, 2469, 2481, 2482
2058, 2483, 2316, 2493, 1913
2059, 2491, 2136, 1862, 2159
2060, 2495, 1877, 2196, 2232
2061, 2307, 1896, 2301, 2326
2062, 2496, 2321, 2502, 2504
2063, 2325, 1903, 2497, 1912
2064, 2502, 2304, 2508, 2299
2065, 2503, 1895, 2286, 1894
2066, 2510, 2508, 1904, 2269
2067, 2509, 2511, 2512, 1893
2068, 2506, 2505, 2266, 2277
2096,  269, 2722,  387,  388
2097,  271, 2689, 2661,  270
2098, 2662,  384,  385, 2660
2099, 2643, 2646, 2853, 2518
2100, 2642, 2647, 2724, 2519
2101, 2641, 2648, 2751, 2520
2102, 2783, 2911, 2805, 2520
2103, 2522, 2941, 2931, 3093
2104, 2523, 2855, 2873, 2823
2105, 2652,  369,  370, 2638
2106, 2653,  367,  368, 2637
2107, 2635, 2655, 2852, 2526
2108, 2634, 2656, 2726, 2527
2109, 2633, 2657, 2752, 2528
2110, 2806, 2786, 2824, 2529
2111, 2670, 2659, 2727, 2530
2112, 2807, 2791, 2837, 2531
2113, 2672,  352,  353, 2669
2114, 2673,  350,  351, 2668
2115, 2666, 2675, 3077, 2534
2116, 2676, 2728, 2535, 2665
2117, 2663, 2677, 2749, 2536
2118, 2685, 3130, 2678, 3134
2119, 2663,  342,  343, 2677
2120, 2661,  386,  387, 2722
2121,  274, 2703, 2716,  273
2122, 2537, 2768, 2703, 2789
2123,  277, 2695, 2690,  276
2124, 2717, 3115, 2515, 2736
2125, 2679,  282,  283, 2704
2126, 2704,  283,  284, 2997
2127, 2997,  284,  285, 2705
2128, 2705, 2696, 2743, 3009
2129, 3003, 2993, 2599, 3084
2130, 3025, 3027, 3166, 3010
2131, 2999, 2980, 2987, 3168
2132, 2972, 2990, 2982, 3205
2133, 2989, 2982, 2603, 3049
2134, 3220, 2994, 3008, 3012
2135, 3020, 2605, 2985, 3220
2136, 3034, 3189, 2988, 3007
2137, 3188, 3179, 2979, 2981
2138, 2986, 2608, 3005, 3011
2139, 3098, 2680,  322,  323
2140, 2900, 2584, 3085, 2585
2141,  326,  327, 2681, 3099
2142,  327,  328, 2719, 2681
2143,  328,  329, 3100, 2719
2144, 2731, 2713, 2687, 2859
2145, 3150, 2759, 3149, 2771
2146, 2532, 2772, 2760, 2748
2147, 3163, 2760, 2772, 2551
2148, 2782, 2772, 2532, 2808
2149, 2551, 2772, 2782, 2828
2150, 3169, 2868, 2828, 2550
2151, 2916, 2882, 2898, 2922
2152, 2939, 2953, 2598, 2739
2153,  321,  322, 2680, 2720
2154,  287, 3103, 2696,  286
2155,  289, 2691, 2697,  288
2156, 2742, 2514, 3047, 2600
2157, 3013, 3022, 2611, 3030
2158, 3068, 3042, 3048, 3206
2159, 3202, 3029, 3056, 2614
2160, 3215, 3201, 3037, 3020
2161, 3014, 3033, 2616, 3023
2162, 3006, 3000, 3180, 2607
2163, 3019, 3026, 2684, 2714
2164, 3017, 3000, 3006, 3018
2165, 2697, 2691, 2742, 3084
2166, 2682,  291,  292, 2692
2167,  296, 3122, 2683,  295
2168, 2513, 2737, 2706, 3125
2169, 2698,  300,  301, 2707
2170, 2707,  301,  302, 3132
2171,  303, 3129, 3132,  302
2172, 3126, 3129,  304,  305
2173, 2630, 3127, 2710, 3128
2174, 2721, 3128,  308,  309
2175,  309,  310, 2709, 2721
2176,  310,  311, 3117, 2709
2177, 2744, 2708, 2702, 3081
2178, 3057, 3050, 2621, 3071
2179, 2614, 3056, 3198, 3050
2180, 3062, 3054, 3058, 3067
2181, 3196, 3210, 3206, 2612
2182, 3073, 3173, 3092, 2626
2183, 3113, 3119, 3111, 3097
2184, 3121, 2746, 3136, 3119
2185, 3127, 3123, 2699, 2710
2186,  305,  306, 2699, 3126
2187, 3075, 2628, 2744, 2622
2188, 3082, 3086, 3107, 3081
2189, 3086, 2615, 3078, 3107
2190, 3078, 3053, 3044, 3057
2191,  315,  316, 2715, 2688
2192,  317,  318, 2684, 3041
2193,  318,  319, 2714, 2684
2194, 2714, 3032, 2609, 3019
2195, 3100, 2713, 2731, 2571
2196, 2827, 2534, 2803, 2553
2197, 2754, 2834, 3137, 2833
2198, 2534, 3077, 2759, 2803
2199, 3133, 3131, 2693, 2738
2200,  341, 2678, 2664,  340
2201,  339, 2711,  338,    8
2202, 2665,  344,  345, 2676
2203, 2666,  346,  347, 2675
2204, 2667,  349,  350, 2673
2205, 2668,  351,  352, 2672
2206, 2669,  353,  354, 2671
2207,  356, 2659, 2670,  355
2208, 2632,  357,  358, 2658
2209, 2633,  359,  360, 2657
2210, 2634,  361,  362, 2656
2211, 2635,  363,  364, 2655
2212, 2636,  366,  367, 2653
2213, 2637,  368,  369, 2652
2214, 2638,  370,  371, 2651
2215, 2639,  372,  373, 2650
2216, 2640,  374,  375, 2649
2217, 2641,  376,  377, 2648
2218, 2642,  378,  379, 2647
2219, 2643,  380,  381, 2646
2220, 2644,  383,  384, 2662
2221, 2660,  385,  386, 2661
2222, 2735, 3116, 2718, 2683
2223, 2611, 3052, 3045, 3036
2224, 3059, 3045, 3052, 3060
2225, 2733, 3106, 2682, 2692
2226, 2692,  292,  293, 3118
2227, 2695,  277,  278, 3104
2228, 2814, 2690, 2695, 2741
2229, 2766, 2768, 2517, 2750
2230, 2756, 2768, 2537, 2792
2231, 2703,  274,  275, 2789
2232, 2767, 3142, 2755, 2539
2233, 3161, 2842, 2767, 2539
2234, 2927, 2906, 2891, 2558
2235, 2966, 2573, 2955, 2978
2236, 3016, 2992, 3010, 3166
2237, 2965, 2589, 2960, 2575
2238, 2960, 2590, 2938, 2924
2239, 2987, 2980, 2590, 2996
2240, 2767, 2784, 2761, 3142
2241, 3142, 2761, 2519, 2724
2242, 3143, 2773, 3153, 2783
2243, 2896, 2541, 2912, 2931
2244, 2811, 2543, 2775, 2787
2245, 2788, 2763, 2775, 2543
2246, 2779, 2758, 2770, 2544
2247, 2801, 2778, 2757, 2816
2248, 2785, 3155, 2769, 2840
2249, 3148, 3147, 2774, 3156
2250, 2765, 2727, 2529, 2812
2251, 2765, 2776, 2530, 2727
2252, 2549, 2791, 2776, 2790
2253, 3153, 2809, 2911, 2783
2254, 2787, 2775, 2524, 2804
2255, 2525, 2753, 2763, 2770
2256, 2758, 2802, 2852, 2723
2257, 2757, 3146, 2726, 2816
2258, 3147, 2752, 2527, 2762
2259, 2824, 3156, 2810, 2548
2260,  332,  333, 2686, 2851
2261, 2851, 2687,  331,  332
2262, 2800, 2777, 2755, 2815
2263, 3159, 2539, 2777, 3140
2264, 2874, 3080, 2557, 2881
2265, 2573, 2945, 2947, 2955
2266, 2588, 2983, 2984, 3015
2267, 2587, 2978, 2955, 2967
2268, 2849, 3175, 2864, 2558
2269, 2846, 2829, 3174, 2540
2270, 2876, 2849, 2558, 2891
2271, 2848, 2862, 2886, 2560
2272, 2848, 2831, 2811, 2542
2273, 2845, 2826, 2867, 2561
2274, 2839, 2819, 2562, 3194
2275, 2841, 2564, 2820, 2798
2276, 2880, 2820, 2564, 2875
2277, 3185, 2863, 2566, 2830
2278, 2830, 2887, 2548, 2810
2279, 2854, 2568, 2866, 3157
2280, 2865, 2541, 2849, 2876
2281, 2560, 2935, 2867, 2848
2282, 2794, 2544, 2788, 3172
2283, 2545, 3158, 2797, 2857
2284, 2778, 2798, 2546, 2757
2285, 2546, 2820, 2840, 2769
2286, 2866, 2936, 2850, 3169
2287, 3170, 2868, 2569, 2844
2288, 2818, 2570, 2838, 2796
2289, 2856, 2780, 2796, 2838
2290, 2795, 2552, 2781, 3163
2291, 2686, 2738, 2833, 3137
2292, 2843, 2832, 2555, 3083
2293, 3083, 2700, 2717, 2736
2294, 3105, 2679, 2704, 2732
2295, 2556, 2858, 2821, 2843
2296, 2573, 2926, 2906, 2945
2297, 2928, 2575, 2921, 2907
2298, 2915, 2883, 2899, 3209
2299, 3208, 2870, 3212, 2577
2300, 2885, 3208, 2577, 3213
2301, 2929, 2894, 2910, 2932
2302, 2579, 2909, 2894, 2929
2303, 2917, 2888, 2903, 2918
2304, 2897, 3192, 3203, 2581
2305, 2904, 2914, 2930, 2583
2306, 2878, 2568, 2854, 2567
2307, 2560, 2886, 2892, 2907
2308, 2562, 3200, 2870, 3208
2309, 3194, 2902, 3181, 2839
2310, 2910, 2894, 2564, 2841
2311, 2565, 2880, 2875, 2942
2312, 2903, 2888, 3191, 2566
2313, 2836, 2869, 2567, 2817
2314, 2569, 2898, 2882, 2871
2315, 2900, 2884, 2871, 2882
2316, 2681, 2734, 2585, 3099
2317, 2844, 2871, 2884, 2570
2318, 2908, 2893, 2515, 3105
2319, 2700,  279,  280, 2717
2320, 2945, 2906, 2927, 3167
2321, 2968, 2951, 2976, 2962
2322, 3217, 2952, 3219, 2937
2323, 2957, 2593, 2948, 2933
2324, 2970, 2948, 2593, 3214
2325, 2950, 2595, 3199, 2934
2326, 2958, 2961, 2971, 2949
2327, 2954, 2944, 2930, 2943
2328, 2938, 2590, 2962, 2976
2329, 3204, 2578, 2932, 2920
2330, 2579, 2929, 2933, 2948
2331, 2956, 2579, 2948, 2970
2332, 2934, 2917, 2919, 2950
2333, 2934, 2949, 2581, 2917
2334, 2712, 2739, 2598, 3098
2335, 2694, 2712,  324,  325
2336, 2972, 3205, 2968, 2962
2337, 2982, 2989, 2591, 3205
2338, 2593, 2994, 2985, 3214
2339, 2988, 2981, 2595, 2998
2340, 2963, 2596, 2961, 2958
2341, 2596, 2963, 2979, 2986
2342, 2953, 2939, 2925, 2944
2343, 2601, 3166, 3027, 3094
2344, 2999, 3002, 2602, 2980
2345, 2602, 3013, 3021, 2990
2346, 3221, 3042, 3038, 3216
2347, 3220, 3012, 3215, 3020
2348, 3028, 2605, 3020, 3037
2349, 2607, 3024, 3014, 3006
2350, 3183, 2612, 3035, 3030
2351, 3045, 3151, 3051, 3036
2352, 2624, 3112, 3101, 3124
2353, 2701,  297,  298, 2706
2354, 2624, 2701, 2706, 2737
2355,  314,  315, 2688, 2623
2356, 2623, 2702,  313,  314
2357, 3091, 2619, 3051, 3151
2358, 3092, 2620, 3074, 3108
2359, 3069, 3070, 2627, 3072
2360, 3071, 2621, 3184, 3069
2361, 3063, 3184, 2621, 3050
2362, 2623, 2688, 2745, 3082
2363, 2625, 3113, 3097, 3108
2364, 3110, 2630, 2740, 2627
2365, 2740, 2630, 3128, 2721
2366, 3090, 2627, 3070, 3066
2367, 2722,  269,  270, 2661
2368, 2689, 2516, 2660, 2661
2369, 2730,  272,  273, 2716
2370, 3104,  278,  279, 2700
2371, 3115,  281,  282, 2679
2372,  286, 2696, 2705,  285
2373, 3103,  287,  288, 2697
2374,  290, 3114, 2691,  289
2375, 3114,  290,  291, 2682
2376,  295, 2683, 2718,  294
2377, 3122,  296,  297, 2701
2378, 3125,  299,  300, 2698
2379,    2,  304, 3129,  303
2380, 3130, 2711, 2664, 2678
2381,  334,  335, 2747, 3131
2382, 2686,  333, 3133, 2738
2383, 2687, 2713,  330,  331
2384,  325,  326, 3099, 2694
2385,  316,  317, 3041, 2715
2386, 2702, 2708,  312,  313
2387, 2710, 2699,  306,  307
2388, 2662, 2660, 2516, 2750
2389,  383, 2644, 2645,  382
2390, 2517, 2725, 2645, 2644
2391, 2815, 2643, 2518, 2800
2392, 2642, 2519, 2751, 2648
2393, 2641, 2520, 2805, 2649
2394, 2640, 2521, 2941, 2650
2395, 2639, 2522, 2855, 2651
2396, 2652, 2638, 2523, 2804
2397, 2637, 2524, 2753, 2653
2398,  366, 2636, 2654,  365
2399, 2723, 2654, 2636, 2525
2400, 2816, 2635, 2526, 2801
2401, 2634, 2527, 2752, 2657
2402, 2633, 2528, 2806, 2658
2403,  357, 2632, 2659,  356
2404, 2671, 2670, 2530, 2807
2405, 2672, 2669, 2531, 2808
2406, 2673, 2668, 2532, 2748
2407,  349, 2667, 2674,  348
2408, 2533, 2729, 2674, 2667
2409, 2835, 2666, 2534, 2827
2410, 2665, 2535, 2749, 2677
2411,  342, 2663, 2678,  341
2412, 2711,  339,  340, 2664
2413, 2658,  358,  359, 2633
2414, 2632, 2529, 2727, 2659
2415, 2657,  360,  361, 2634
2416, 2806, 2528, 3148, 2786
2417, 2656,  362,  363, 2635
2418, 2655,  364,  365, 2654
2419, 2816, 2726, 2656, 2635
2420, 2636, 2653, 2753, 2525
2421, 2651,  371,  372, 2639
2422, 2787, 2804, 2523, 2823
2423, 2650,  373,  374, 2640
2424, 2649,  375,  376, 2641
2425, 2931, 2941, 2521, 2896
2426, 2648,  377,  378, 2642
2427, 2647,  379,  380, 2643
2428, 2646,  381,  382, 2645
2429, 2815, 2724, 2647, 2643
2430, 2644, 2662, 2750, 2517
2431, 2646, 2645, 2725, 2853
2432, 2655, 2654, 2723, 2852
2433, 2677,  343,  344, 2665
2434, 2663, 2536, 3134, 2678
2435, 2676,  345,  346, 2666
2436, 2675,  347,  348, 2674
2437, 2835, 2728, 2676, 2666
2438, 2667, 2673, 2748, 2533
2439, 2671,  354,  355, 2670
2440, 2782, 2808, 2531, 2822
2441, 2791, 2807, 2530, 2776
2442, 2675, 2674, 2729, 3077
2443, 2685, 3134, 2536, 2747
2444, 2515, 3115, 2679, 3105
2445, 2953, 2597, 3089, 2598
2446, 3089, 3040, 2720, 2680
2447, 2571, 3088, 2719, 3100
2448, 3120, 2733, 2692, 3118
2449, 2514, 3114, 2682, 3106
2450, 2735, 3124, 3101, 2618
2451, 2617, 3041, 2684, 3026
2452,  335,  336, 2685, 2747
2453, 3130, 2685,  336,  337
2454, 2764, 2693, 2536, 2749
2455, 2554, 2851, 2686, 3137
2456, 2859, 2834, 2827, 2553
2457, 2617, 3046, 2715, 3041
2458, 2689,  271,  272, 2730
2459, 2741, 2695, 3104, 2555
2460, 2537, 2789, 2690, 2814
2461, 2733, 3120, 3060, 2610
2462, 2693, 3131, 2747, 2536
2463, 2764, 2749, 2535, 3138
2464, 2739, 2712, 2694, 3085
2465, 2741, 2555, 2832, 2538
2466, 2587, 2993, 2984, 2978
2467, 2599, 3103, 2697, 3084
2468, 2631, 2746, 2707, 3132
2469, 3125, 2698, 3121, 2513
2470, 2631, 3126, 2699, 3123
2471, 2555, 3104, 2700, 3083
2472, 2717,  280,  281, 3115
2473, 3122, 2701, 2624, 3124
2474, 2706,  298,  299, 3125
2475, 2517, 2768, 2756, 2725
2476, 2766, 2716, 2703, 2768
2477, 2967, 2977, 2586, 3009
2478, 2586, 2997, 2705, 3009
2479, 2737, 2513, 3113, 2625
2480, 2631, 3123, 3136, 2746
2481, 2628, 3117, 2708, 2744
2482,  311,  312, 2708, 3117
2483, 3072, 2627, 2740, 3109
2484, 2740, 2721, 2709, 3109
2485, 3128, 2710,  307,  308
2486, 3110, 2629, 3127, 2630
2487,  337,  338, 2711, 3130
2488,  323,  324, 2712, 3098
2489,  329,  330, 2713, 3100
2490, 3032, 2714,  319,  320
2491, 3011, 3005, 3019, 2609
2492, 3018, 3023, 3046, 2617
2493, 3135, 2730, 2716, 2766
2494, 2556, 2893, 2874, 2858
2495, 3120, 3118, 2718, 3116
2496, 2838, 2570, 3088, 2571
2497, 2609, 3032, 2720, 3040
2498,  320,  321, 2720, 3032
2499, 2758, 2723, 2525, 2770
2500, 2724, 2815, 2755, 3142
2501, 2853, 2725, 2756, 2792
2502, 2835, 2754, 3138, 2728
2503, 3149, 2729, 2533, 2771
2504, 3077, 2729, 3149, 2759
2505, 2516, 2689, 2730, 3135
2506, 2554, 2859, 2687, 2851
2507, 2856, 2838, 2571, 2731
2508, 2629, 3136, 3123, 3127
2509, 2908, 3105, 2732, 2572
2510, 3141, 3106, 2733, 2610
2511, 3026, 3019, 3005, 3017
2512, 2884, 2734, 3088, 2570
2513, 2734, 2681, 2719, 3088
2514, 2683, 3122, 3124, 2735
2515, 3059, 3116, 2735, 2618
2516, 2598, 3089, 2680, 3098
2517, 2597, 3087, 3040, 3089
2518, 2556, 2843, 3083, 2736
2519, 2737, 2625, 3112, 2624
2520, 3138, 2754, 2833, 2764
2521, 2585, 3085, 2694, 3099
2522, 2939, 2584, 2916, 2925
2523, 2628, 3109, 2709, 3117
2524, 2814, 2741, 2538, 3139
2525, 2742, 2691, 3114, 2514
2526, 2600, 3003, 3084, 2742
2527, 2599, 2743, 2696, 3103
2528, 2967, 3009, 2743, 2587
2529, 3081, 2702, 2623, 3082
2530, 3082, 2745, 2616, 3086
2531, 2745, 2688, 2715, 3046
2532, 2707, 2746, 3121, 2698
2533, 2750, 2516, 3135, 2766
2534, 2751, 2519, 2761, 3143
2535, 2763, 2753, 2524, 2775
2536, 2827, 2834, 2754, 2835
2537, 3144, 2802, 3158, 2545
2538, 2780, 2803, 2759, 3150
2539, 2771, 2760, 3163, 2781
2540, 2533, 2748, 2760, 2771
2541, 2761, 2784, 2773, 3143
2542, 3146, 2762, 2527, 2726
2543, 2774, 3155, 2785, 2547
2544, 2770, 2763, 2788, 2544
2545, 2738, 2693, 2764, 2833
2546, 3162, 2765, 2812, 2793
2547, 2790, 2776, 2765, 3162
2548, 2762, 3146, 2769, 3155
2549, 2822, 2531, 2837, 2550
2550, 3175, 3174, 2829, 2864
2551, 2896, 2911, 2809, 2541
2552, 2830, 2810, 2547, 3185
2553, 3156, 2824, 2786, 3148
2554, 2567, 2813, 2549, 2817
2555, 2539, 3159, 2799, 3161
2556, 2778, 3145, 3095, 2798
2557, 2757, 2546, 2769, 3146
2558, 3164, 2797, 3158, 2779
2559, 3145, 3144, 2545, 3095
2560, 2796, 2780, 3150, 2552
2561, 2803, 2780, 2856, 2553
2562, 2552, 3150, 2771, 2781
2563, 2808, 2532, 2668, 2672
2564, 2805, 2521, 2640, 2649
2565, 3143, 2783, 2520, 2751
2566, 2784, 2767, 2842, 2860
2567, 2773, 2784, 2860, 2540
2568, 2806, 2529, 2632, 2658
2569, 2804, 2524, 2637, 2652
2570, 2811, 2787, 2823, 2542
2571, 2789,  275,  276, 2690
2572, 2807, 2531, 2669, 2671
2573, 2792, 2537, 2814, 3139
2574, 3140, 3139, 2538, 3159
2575, 2836, 2817, 2793, 2887
2576, 3172, 2826, 2845, 2794
2577, 2794, 2845, 2819, 3164
2578, 2551, 2825, 2795, 3163
2579, 3170, 2818, 2795, 2825
2580, 2818, 2796, 2552, 2795
2581, 2797, 3164, 2819, 2839
2582, 2857, 2797, 2839, 3181
2583, 2841, 2798, 3095, 3165
2584, 2832, 2799, 3159, 2538
2585, 2799, 2832, 2843, 2821
2586, 2518, 2853, 2792, 3139
2587, 2526, 2852, 2802, 3144
2588, 2802, 2758, 2779, 3158
2589, 2540, 3174, 3153, 2773
2590, 2774, 2547, 2810, 3156
2591, 2824, 2548, 2812, 2529
2592, 2793, 2812, 2548, 2887
2593, 2791, 2549, 2813, 2837
2594, 2817, 2549, 2790, 3162
2595, 2842, 3161, 2858, 3182
2596, 2821, 2858, 3161, 2799
2597, 2550, 2828, 2782, 2822
2598, 2855, 2523, 2638, 2651
2599, 2825, 2551, 2828, 2868
2600, 2826, 2543, 2811, 2831
2601, 2561, 2883, 3200, 2845
2602, 3169, 2850, 3176, 2868
2603, 2864, 2829, 2846, 3178
2604, 2541, 2809, 3175, 2849
2605, 2847, 2861, 2863, 3185
2606, 2831, 2848, 2867, 2826
2607, 2731, 2859, 2553, 2856
2608, 2566, 3191, 2836, 2887
2609, 2567, 2854, 3157, 2813
2610, 2872, 2823, 2873, 3154
2611, 2550, 2837, 2813, 3157
2612, 2820, 2880, 2861, 2840
2613, 2785, 2840, 2861, 2847
2614, 2857, 3165, 3095, 2545
2615, 2563, 2910, 2841, 3165
2616, 3182, 2881, 2860, 2842
2617, 2844, 2570, 2818, 3170
2618, 2819, 2845, 3200, 2562
2619, 2862, 2872, 2905, 2886
2620, 2867, 2935, 2899, 2561
2621, 3157, 2866, 3169, 2550
2622, 2936, 2922, 3176, 2850
2623, 2568, 2904, 2936, 2866
2624, 2873, 2855, 2522, 3093
2625, 2861, 2880, 2565, 2863
2626, 2881, 2846, 2540, 2860
2627, 2554, 3137, 2834, 2859
2628, 2547, 2785, 2847, 3185
2629, 2890, 2905, 2895, 2889
2630, 2557, 3178, 2846, 2881
2631, 2864, 3178, 2927, 2558
2632, 2865, 2876, 2889, 2895
2633, 2877, 2865, 2895, 3154
2634, 2569, 2868, 3176, 2898
2635, 3191, 2888, 3203, 3192
2636, 3192, 2897, 2879, 2869
2637, 2870, 3200, 2883, 2576
2638, 2542, 2823, 2872, 2862
2639, 2912, 2877, 3093, 2931
2640, 2893, 2556, 2736, 2515
2641, 2908, 3080, 2874, 2893
2642, 2875, 2564, 2894, 2909
2643, 2942, 2875, 2909, 2580
2644, 2889, 2876, 2891, 3186
2645, 2865, 2877, 2912, 2541
2646, 3154, 2873, 3093, 2877
2647, 2878, 2567, 2869, 2879
2648, 2878, 2914, 2904, 2568
2649, 2582, 2914, 2878, 2879
2650, 2874, 2881, 3182, 2858
2651, 2739, 3085, 2584, 2939
2652, 2901, 2576, 2938, 2976
2653, 2585, 2734, 2884, 2900
2654, 2913, 2902, 3194, 2885
2655, 2890, 2892, 2886, 2905
2656, 2903, 2566, 2863, 2565
2657, 2897, 2581, 2949, 2971
2658, 2890, 2889, 3186, 2559
2659, 2890, 2559, 3187, 2892
2660, 2892, 3187, 2928, 2907
2661, 2909, 2579, 2956, 2580
2662, 2911, 2896, 2521, 2805
2663, 2879, 2897, 2971, 2582
2664, 2936, 2904, 2583, 2922
2665, 2907, 2921, 2935, 2560
2666, 2924, 3209, 2921, 2575
2667, 2584, 2900, 2882, 2916
2668, 2576, 2901, 3212, 2870
2669, 2920, 2902, 2913, 3204
2670, 2563, 3181, 2902, 2920
2671, 2922, 2583, 2925, 2916
2672, 2905, 2872, 3154, 2895
2673, 2573, 2966, 3177, 2926
2674, 2572, 2946, 3080, 2908
2675, 2918, 2942, 2580, 3207
2676, 2563, 2920, 2932, 2910
2677, 3213, 2923, 2913, 2885
2678, 2923, 2973, 3204, 2913
2679, 2903, 2565, 2942, 2918
2680, 2914, 2582, 2943, 2930
2681, 2919, 2917, 2918, 3207
2682, 2888, 2917, 2581, 3203
2683, 2929, 2932, 2578, 2933
2684, 2899, 2935, 2921, 3209
2685, 2937, 3219, 3213, 2577
2686, 2973, 2969, 2578, 3204
2687, 2576, 2915, 2924, 2938
2688, 2944, 2925, 2583, 2930
2689, 2940, 3177, 2574, 3193
2690, 2906, 2926, 3186, 2891
2691, 3167, 2557, 3080, 2946
2692, 2945, 3167, 2946, 2947
2693, 2940, 3193, 3187, 2559
2694, 2975, 2965, 2575, 2928
2695, 2941, 2522, 2639, 2650
2696, 2969, 2957, 2933, 2578
2697, 2958, 2949, 2934, 3199
2698, 2951, 2937, 2901, 2976
2699, 3064, 2591, 2989, 3055
2700, 2559, 2926, 3177, 2940
2701, 2971, 2961, 2943, 2582
2702, 2944, 2954, 2597, 2953
2703, 2947, 2946, 2572, 2977
2704, 2947, 2977, 2967, 2955
2705, 3079, 2970, 3214, 2974
2706, 2901, 2937, 2577, 3212
2707, 2969, 2973, 3223, 2592
2708, 2973, 3219, 2952, 3223
2709, 2596, 2954, 2943, 2961
2710, 3087, 2596, 2986, 3011
2711, 3207, 2964, 2959, 2919
2712, 2957, 3222, 2994, 2593
2713, 2963, 2958, 3199, 2595
2714, 2964, 3207, 2580, 2956
2715, 2959, 2594, 3218, 2950
2716, 2960, 2589, 2996, 2590
2717, 2962, 2590, 2980, 2972
2718, 2963, 2595, 2981, 2979
2719, 2964, 2956, 2970, 3079
2720, 2959, 2964, 3079, 2594
2721, 2983, 2588, 2991, 2574
2722, 2991, 2992, 2965, 2975
2723, 2983, 2966, 2978, 2984
2724, 3177, 2966, 2983, 2574
2725, 3217, 2968, 3205, 2591
2726, 2951, 2968, 3217, 2937
2727, 2957, 2969, 2592, 3222
2728, 2990, 2972, 2980, 2602
2729, 3219, 2973, 2923, 3213
2730, 3214, 2985, 2995, 2974
2731, 3079, 2974, 3004, 2594
2732, 3193, 2975, 2928, 3187
2733, 2574, 2991, 2975, 3193
2734, 2977, 2572, 2732, 2586
2735, 2586, 2732, 2704, 2997
2736, 2608, 2986, 2979, 3179
2737, 2982, 2990, 3021, 2603
2738, 3179, 3180, 3000, 2608
2739, 3049, 2603, 3048, 3042
2740, 2992, 2991, 2588, 3010
2741, 2993, 2587, 2743, 2599
2742, 3003, 3015, 2984, 2993
2743, 2605, 3028, 2995, 2985
2744, 3168, 2987, 3001, 2601
2745, 3218, 3211, 2998, 2950
2746, 3024, 2607, 3034, 3195
2747, 3049, 2604, 3055, 2989
2748, 2589, 2965, 2992, 3016
2749, 3008, 2994, 3222, 3055
2750, 2606, 3004, 2995, 3028
2751, 2996, 2589, 3016, 3001
2752, 2998, 3211, 3007, 2988
2753, 3152, 3160, 3031, 2610
2754, 3002, 3022, 3013, 2602
2755, 3010, 2588, 3015, 3025
2756, 3004, 2606, 3007, 3211
2757, 3017, 3005, 2608, 3000
2758, 3023, 3018, 3006, 3014
2759, 3012, 3008, 2604, 3221
2760, 3011, 2609, 3040, 3087
2761, 2592, 3064, 3055, 3222
2762, 3216, 3038, 3029, 3202
2763, 3216, 3215, 3012, 3221
2764, 3021, 3013, 3030, 3035
2765, 3039, 3024, 3195, 2606
2766, 3015, 3003, 2600, 3025
2767, 2601, 3001, 3016, 3166
2768, 3026, 3017, 3018, 2617
2769, 2745, 3046, 3023, 2616
2770, 3168, 3031, 3160, 2999
2771, 3022, 3152, 3052, 2611
2772, 3189, 3034, 2607, 3180
2773, 3024, 3039, 3033, 3014
2774, 3027, 3025, 2600, 3047
2775, 3094, 3027, 3047, 3141
2776, 3043, 3039, 2606, 3028
2777, 3056, 3029, 2613, 3062
2778, 2611, 3036, 3183, 3030
2779, 3061, 3183, 3036, 3051
2780, 3033, 2615, 3086, 2616
2781, 3195, 3034, 3007, 2606
2782, 2603, 3021, 3035, 3048
2783, 3037, 3201, 3044, 3053
2784, 3039, 3043, 2615, 3033
2785, 2604, 3049, 3042, 3221
2786, 3029, 3038, 3068, 2613
2787, 2514, 3106, 3141, 3047
2788, 3043, 3028, 3037, 3053
2789, 3044, 2614, 3050, 3057
2790, 3048, 3035, 2612, 3206
2791, 3068, 3206, 3210, 2613
2792, 3058, 3190, 2619, 3076
2793, 2610, 3060, 3052, 3152
2794, 2615, 3043, 3053, 3078
2795, 2619, 3190, 3061, 3051
2796, 3065, 3056, 3062, 3067
2797, 3078, 3057, 2622, 3107
2798, 3116, 3059, 3060, 3120
2799, 3059, 2618, 3151, 3045
2800, 3183, 3061, 3196, 2612
2801, 3171, 3198, 3065, 2620
2802, 3054, 3062, 2613, 3210
2803, 3063, 3171, 3173, 3066
2804, 2591, 3064, 2952, 3217
2805, 3090, 3066, 3173, 3073
2806, 3067, 3058, 3076, 3074
2807, 2620, 3065, 3067, 3074
2808, 3071, 3069, 3072, 3075
2809, 3066, 3070, 3069, 3184
2810, 2622, 3057, 3071, 3075
2811, 3109, 2628, 3075, 3072
2812, 3090, 3073, 2626, 3102
2813, 3108, 3074, 3076, 3096
2814, 3096, 3076, 2619, 3091
2815, 3081, 3107, 2622, 2744
2816, 3087, 2597, 2954, 2596
2817, 3090, 3102, 3110, 2627
2818, 2618, 3101, 3091, 3151
2819, 3091, 3101, 3112, 3096
2820, 3092, 3108, 3097, 2626
2821, 2610, 3031, 3094, 3141
2822, 2601, 3094, 3031, 3168
2823, 3111, 3102, 2626, 3097
2824, 2629, 3110, 3102, 3111
2825, 2625, 3108, 3096, 3112
2826, 3113, 2513, 3121, 3119
2827, 3118,  293,  294, 2718
2828, 2629, 3111, 3119, 3136
2829, 3129, 3126, 2631, 3132
2830,  334, 3131, 3133,  333
2831, 2800, 2518, 3139, 3140
2832, 2801, 2526, 3144, 3145
2833, 2528, 2752, 3147, 3148
2834, 3147, 2762, 3155, 2774
2835, 3160, 3152, 3022, 3002
2836, 3164, 2779, 2544, 2794
2837, 3165, 2857, 3181, 2563
2838, 2557, 3167, 2927, 3178
2839, 2620, 3092, 3173, 3171
2840, 3198, 3171, 3063, 3050
2841, 3172, 2788, 2543, 2826
2842, 2809, 3153, 3174, 3175
2843, 3180, 3179, 3188, 3189
2844, 3189, 3188, 2981, 2988
2845, 3190, 3197, 3196, 3061
2846, 2869, 2836, 3191, 3192
2847, 2885, 3194, 2562, 3208
2848, 3197, 3190, 3058, 3054
2849, 2614, 3044, 3201, 3202
2850, 3202, 3201, 3215, 3216
2851, 2594, 3004, 3211, 3218
2852, 3210, 3196, 3197, 3054
2853, 3064, 2592, 3223, 2952
2883, 3238,  115,  114, 3826
2884, 3449, 3832, 3390, 3424
2885, 3850, 3814, 3806, 3798
2886, 3240, 3796, 3790, 3783
2887, 3787, 3777, 3771, 3249
2888, 3226, 3756, 3778, 3801
2889, 3700, 3265, 3887, 3707
2890, 3679, 3693, 3271, 3654
2891, 3277, 3584, 3571, 3545
2892, 3891, 3542, 3504, 3281
2893, 3505, 3847, 3285, 3647
2894, 3460, 3387, 3342, 3287
2895, 3386,  395,  396, 3343
2896, 3342, 3386, 3433, 3287
2897, 3385,  397,  398, 3384
2898, 3491, 3477, 3471, 3859
2899, 3908, 3550, 3569, 3901
2900, 3623, 3609, 3272, 3593
2901, 3676, 3266, 3662, 3687
2902, 3703, 3718, 3259, 3696
2903, 3735, 3748, 3910, 3702
2904, 3764, 3759, 3782, 3240
2905, 3794, 3809, 3788, 3295
2906, 3812, 3816, 3448, 3296
2907,  121, 3810, 3416,  122
2908, 3389,  120,  119, 3423
2909, 3810, 3389, 3816, 3306
2910, 3390,  117,  116, 3424
2911, 3424,  116,  115, 3238
2912, 3419,  181,  180, 3227
2913, 3227,  180,  179, 3420
2914, 3421,  178,  177, 3823
2915, 3805, 3790, 3796, 3239
2916, 3420, 3452, 3815, 3227
2917, 3817, 3821, 3814, 3850
2918, 3417, 3451, 3238, 3826
2919,  183, 3826,  114,    4
2920, 3417,  182,  181, 3419
2921, 3823,  177,  176, 3414
2922, 3414, 3411, 3807, 3445
2923, 3414, 3445, 3247, 3823
2924,  174, 3811, 3411,  175
2925,  172, 3398, 3418,  173
2926, 3767, 3756, 3264, 3752
2927, 3808, 3418, 3398, 3453
2928, 3803, 3226, 3801, 3398
2929, 3754, 3269, 3760, 3415
2930,  165, 3275, 3425,  166
2931, 3715, 3603, 3276, 3444
2932,  161, 3401, 3721,  162
2933, 3427,  160,  159, 3674
2934, 3674,  159,  158, 3428
2935, 3391, 3560, 3659, 3428
2936, 3536, 3848, 3466, 3433
2937, 3504, 3542, 3560, 3284
2938, 3401, 3450, 3225, 3721
2939, 3571, 3584, 3603, 3586
2940, 3693, 3685, 3667, 3271
2941, 3700, 3707, 3728, 3270
2942, 3399, 3446, 3226, 3803
2943, 3415,  169,  168, 3754
2944,  156, 3530, 3391,  157
2945, 3827, 3412,  155,  154
2946,  393, 3387, 3344,  392
2947, 3440, 3518, 3412, 3827
2948, 3457, 3224, 3402, 3825
2949,  389, 3392,  149,    5
2950,  391, 3388, 3345,  390
2951, 3403, 3824, 3388, 3828
2952, 3343, 3385, 3647, 3285
2953, 3346,  399,  400, 3383
2954, 3859, 3278, 3878, 3491
2955, 3606, 3590, 3550, 3273
2956, 3624, 3892, 3595, 3611
2957, 3903, 3918, 3696, 3259
2958, 3925, 3701, 3655, 3242
2959, 3740, 3241, 3917, 3743
2960, 3753, 3765, 3780, 3904
2961, 3295, 3875, 3795, 3802
2962, 3853, 3794, 3295, 3802
2963, 3346, 3282, 3438, 3384
2964, 3347,  401,  402, 3382
2965, 3556, 3573, 3526, 3274
2966, 3261, 3578, 3548, 3563
2967, 3625, 3640, 3611, 3261
2968, 3655, 3251, 3930, 3635
2969, 3931, 3925, 3242, 3646
2970, 3739, 3717, 3293, 3720
2971, 3779, 3765, 3753, 3294
2972, 3839, 3305, 3804, 3306
2973, 3792, 3858, 3795, 3875
2974, 3461, 3383, 3347, 3279
2975, 3381,  404,  405, 3349
2976, 3573, 3661, 3267, 3606
2977, 3253, 3535, 3547, 3921
2978, 3649, 3575, 3613, 3252
2979, 3634, 3631, 3632, 3636
2980, 3232, 3677, 3688, 3706
2981, 3761, 3912, 3736, 3304
2982, 3800, 3766, 3781, 3791
2983,  123, 3422, 3819,  124
2984, 3416, 3804, 3813, 3422
2985, 3380,  406,  407, 3350
2986, 3598, 3616, 3900, 3262
2987, 3559, 3523, 3244, 3575
2988, 3243, 3596, 3631, 3634
2989, 3629, 3633, 3621, 3626
2990, 3682, 3933, 3695, 3293
2991, 3898, 3768, 3741, 3899
2992, 3833, 3456, 3838, 3776
2993,  125, 3410, 3429,  126
2994, 3410,  125,  124, 3819
2995, 3268, 3658, 3644, 3661
2996, 3379,  408,  409, 3351
2997, 3473, 3496, 3484, 3846
2998, 3502, 3540, 3523, 3884
2999, 3587, 3291, 3619, 3915
3000, 3630, 3639, 3626, 3291
3001, 3303, 3923, 3729, 3741
3002, 3750, 3312, 3744, 3320
3003, 3495, 3616, 3509, 3255
3004, 3378,  410,  411, 3352
3005, 3905, 3577, 3503, 3541
3006, 3570, 3585, 3637, 3604
3007, 3698, 3664, 3668, 3694
3008, 3726, 3712, 3724, 3744
3009, 3454, 3745, 3393, 3432
3010,  131, 3430, 3409,  132
3011, 3393,  129,  128, 3432
3012, 3327, 3762, 3393, 3745
3013, 3351, 3378, 3463, 3255
3014, 3377,  412,  413, 3353
3015, 3506, 3467, 3486, 3868
3016, 3524, 3499, 3544, 3290
3017, 3653, 3689, 3680, 3310
3018, 3699, 3708, 3319, 3675
3019, 3744, 3724, 3738, 3320
3020, 3352, 3377, 3434, 3246
3021, 3376,  414,  415, 3375
3022, 3478, 3472, 3493, 3289
3023, 3568, 3300, 3528, 3902
3024, 3594, 3318, 3653, 3911
3025, 3678, 3675, 3895, 3663
3026, 3327, 3747, 3430, 3762
3027, 3723, 3699, 3326, 3441
3028, 3353, 3376, 3552, 3228
3029, 3354,  416,  417, 3374
3030, 3483, 3299, 3493, 3472
3031, 3588, 3309, 3565, 3881
3032, 3592, 3622, 3317, 3589
3033, 3870, 3697, 3326, 3678
3034,  132, 3409, 3784,  133
3035, 3430,  131,  130, 3762
3036, 3354, 3288, 3437, 3375
3037, 3355,  418,  419, 3373
3038, 3555, 3574, 3527, 3307
3039, 3324, 3581, 3551, 3566
3040, 3608, 3324, 3893, 3643
3041, 3455, 3714, 3394, 3431
3042, 3394,  135,  134, 3431
3043, 3431,  134,  133, 3784
3044, 3462, 3374, 3355, 3298
3045, 3372,  421,  422, 3357
3046, 3316, 3574, 3660, 3580
3047, 3532, 3546, 3330, 3566
3048, 3896, 3614, 3331, 3648
3049, 3371,  423,  424, 3358
3050, 3600, 3615, 3513, 3323
3051, 3522, 3894, 3897, 3557
3052, 3443, 3650, 3396, 3408
3053,  139, 3684, 3395,  140
3054, 3396,  138,  137, 3408
3055, 3338, 3684, 3396, 3650
3056, 3315, 3657, 3645, 3660
3057, 3370,  425,  426, 3359
3058, 3481, 3863, 3490, 3329
3059, 3537, 3333, 3522, 3557
3060, 3489, 3615, 3510, 3328
3061, 3369,  427,  428, 3360
3062, 3480, 3469, 3488, 3333
3063, 3338, 3538, 3554, 3442
3064, 3894, 3538, 3334, 3897
3065, 3359, 3369, 3458, 3328
3066, 3368,  429,  430, 3361
3067, 3516, 3836, 3336, 3553
3068,  141, 3407, 3497,  142
3069, 3395, 3442, 3517, 3407
3070, 3360, 3368, 3435, 3332
3071, 3367,  431,  432, 3366
3072, 3397,  144,  143, 3406
3073, 3406,  143,  142, 3497
3074, 3361, 3367, 3553, 3336
3075, 3362,  433,  434, 3365
3076, 3362, 3365, 3459, 3339
3077, 3363,  435,  436, 3364
3078,  146, 3405, 3364,  147
3079,  148, 3404,  438,    1
3080, 3364,  436,  437, 3404
3081, 3742, 3426, 3425, 3447
3082, 3275, 3716, 3447, 3425
3083, 3507, 3228, 3843, 3844
3084, 3502, 3558, 3906, 3540
3085, 3710, 3924, 3743, 3917
3086, 3759, 3234, 3769, 3782
3087, 3796, 3793, 3806, 3239
3088, 3236, 3850, 3798, 3809
3089, 3818, 3817, 3850, 3236
3090, 3817, 3818, 3822, 3237
3091, 3783, 3751, 3764, 3240
3092, 3751, 3783, 3770, 3909
3093, 3719, 3702, 3926, 3920
3094, 3635, 3243, 3634, 3932
3095, 3575, 3244, 3596, 3613
3096, 3884, 3539, 3479, 3245
3097, 3845, 3473, 3246, 3434
3098, 3250, 3258, 3734, 3757
3099, 3258, 3250, 3746, 3786
3100, 3251, 3711, 3703, 3691
3101, 3691, 3252, 3930, 3251
3102, 3254, 3547, 3535, 3900
3103, 3846, 3484, 3861, 3495
3104, 3903, 3725, 3713, 3681
3105, 3260, 3681, 3662, 3624
3106, 3261, 3611, 3595, 3578
3107, 3548, 3578, 3879, 3262
3108, 3598, 3262, 3617, 3644
3109, 3676, 3679, 3654, 3266
3110, 3265, 3700, 3676, 3687
3111, 3871, 3627, 3892, 3624
3112, 3602, 3638, 3584, 3277
3113, 3274, 3526, 3492, 3511
3114,  163, 3400, 3413,  164
3115, 3413, 3444, 3685, 3275
3116, 3890, 3500, 3545, 3571
3117, 3545, 3529, 3901, 3277
3118, 3279, 3482, 3471, 3461
3119, 3281, 3851, 3465, 3477
3120, 3847, 3505, 3851, 3485
3121, 3288, 3478, 3467, 3437
3122, 3289, 3524, 3503, 3486
3123, 3626, 3621, 3619, 3291
3124, 3639, 3671, 3292, 3626
3125, 3298, 3483, 3472, 3462
3126, 3299, 3528, 3499, 3493
3127, 3300, 3585, 3570, 3544
3128, 3923, 3671, 3639, 3302
3129, 3749, 3775, 3768, 3898
3130, 3304, 3766, 3880, 3761
3131, 3307, 3527, 3494, 3512
3132, 3673, 3549, 3309, 3610
3133, 3585, 3300, 3568, 3928
3134, 3311, 3726, 3731, 3705
3135, 3781, 3766, 3304, 3774
3136, 3549, 3882, 3565, 3309
3137, 3318, 3895, 3689, 3653
3138, 3600, 3865, 3618, 3645
3139, 3567, 3323, 3551, 3581
3140, 3324, 3608, 3592, 3581
3141, 3663, 3325, 3870, 3678
3142, 3489, 3842, 3481, 3864
3143, 3329, 3546, 3532, 3886
3144, 3669, 3665, 3857, 3692
3145, 3841, 3470, 3332, 3435
3146, 3597, 3334, 3650, 3443
3147, 3469, 3521, 3508, 3488
3148, 3475, 3476, 3339, 3459
3149,  182, 3417, 3826,  183
3150, 3420,  179,  178, 3421
3151,  175, 3411, 3414,  176
3152, 3811,  174,  173, 3418
3153,  171, 3803, 3398,  172
3154, 3399,  170,  169, 3415
3155,  166, 3425, 3426,  167
3156, 3275,  165,  164, 3413
3157,  162, 3721, 3400,  163
3158, 3401,  161,  160, 3427
3159,  157, 3391, 3428,  158
3160, 3530,  156,  155, 3412
3161, 3824, 3392, 3345, 3388
3162, 3365, 3363, 3341, 3459
3163,  433, 3362, 3366,  432
3164, 3339, 3436, 3366, 3362
3165, 3521, 3361, 3336, 3508
3166, 3360, 3332, 3458, 3369
3167, 3359, 3328, 3510, 3370
3168, 3358, 3322, 3657, 3371
3169, 3357, 3315, 3555, 3372
3170, 3373, 3356, 3307, 3512
3171,  416, 3354, 3375,  415
3172, 3520, 3353, 3228, 3507
3173, 3352, 3246, 3463, 3378
3174, 3351, 3255, 3509, 3379
3175, 3350, 3263, 3658, 3380
3176, 3349, 3268, 3556, 3381
3177, 3382, 3348, 3274, 3511
3178,  399, 3346, 3384,  398
3179, 3536, 3343, 3285, 3531
3180,  394, 3342, 3387,  393
3181,  392, 3344, 3388,  391
3182, 3392,  389,  390, 3345
3183, 3404,  148,  147, 3364
3184, 3405, 3341, 3363, 3364
3185, 3439,  145,  144, 3397
3186,  140, 3395, 3407,  141
3187, 3684,  139,  138, 3396
3188, 3730,  136,  135, 3394
3189, 3762,  130,  129, 3393
3190,  127,  126, 3429, 3321
3191,  122, 3416, 3422,  123
3192, 3810,  121,  120, 3389
3193,  118,  117, 3390, 3297
3194, 3344, 3387, 3460, 3224
3195, 3342,  394,  395, 3386
3196, 3536, 3433, 3386, 3343
3197, 3343,  396,  397, 3385
3198, 3344, 3224, 3828, 3388
3199,  151,  150, 3824, 3403
3200, 3383,  400,  401, 3347
3201, 3346, 3383, 3461, 3282
3202, 3382,  402,  403, 3348
3203, 3279, 3511, 3492, 3482
3204, 3348,  403,  404, 3381
3205, 3349,  405,  406, 3380
3206, 3644, 3658, 3263, 3598
3207, 3350,  407,  408, 3379
3208, 3351,  409,  410, 3378
3209, 3352,  411,  412, 3377
3210, 3520, 3434, 3377, 3353
3211, 3353,  413,  414, 3376
3212, 3374,  417,  418, 3355
3213, 3354, 3374, 3462, 3288
3214, 3373,  419,  420, 3356
3215, 3298, 3512, 3494, 3483
3216, 3356,  420,  421, 3372
3217, 3357,  422,  423, 3371
3218, 3645, 3657, 3322, 3600
3219, 3358,  424,  425, 3370
3220, 3359,  426,  427, 3369
3221, 3360,  428,  429, 3368
3222, 3521, 3435, 3368, 3361
3223, 3361,  430,  431, 3367
3224, 3365,  434,  435, 3363
3225, 3367, 3366, 3436, 3553
3226, 3376, 3375, 3437, 3552
3227, 3385, 3384, 3438, 3647
3228, 3403, 3828, 3224, 3457
3229, 3423,  119,  118, 3297
3230, 3448, 3423, 3297, 3820
3231, 3424, 3238, 3451, 3449
3232, 3543, 3519, 3849, 3284
3233,  150,  149, 3392, 3824
3234, 3432,  128,  127, 3321
3235, 3454, 3432, 3321, 3755
3236, 3785, 3455, 3431, 3784
3237, 3335, 3730, 3394, 3714
3238, 3408,  137,  136, 3730
3239, 3443, 3408, 3730, 3335
3240, 3406, 3497, 3340, 3476
3241, 3829, 3439, 3397, 3475
3242, 3257, 3801, 3778, 3773
3243, 3444, 3413, 3400, 3715
3244, 3651, 3427, 3674, 3283
3245, 3827, 3825, 3402, 3440
3246, 3474, 3460, 3287, 3834
3247,  152,  151, 3403, 3457
3248, 3405,  146,  145, 3439
3249, 3339, 3476, 3464, 3436
3250, 3340, 3497, 3407, 3517
3251, 3597, 3576, 3897, 3334
3252, 3441, 3772, 3409, 3430
3253, 3785, 3784, 3409, 3772
3254, 3456, 3314, 3791, 3838
3255, 3410, 3456, 3833, 3429
3256, 3807, 3256, 3866, 3867
3257, 3286, 3530, 3412, 3518
3258, 3760, 3269, 3737, 3854
3259, 3830, 3419, 3227, 3821
3260, 3256, 3811, 3418, 3808
3261, 3237, 3830, 3821, 3817
3262, 3840, 3421, 3823, 3247
3263, 3314, 3819, 3422, 3813
3264, 3822, 3835, 3820, 3832
3265, 3269, 3754, 3426, 3742
3266, 3855, 3651, 3283, 3542
3267, 3283, 3674, 3428, 3659
3268, 3692, 3857, 3455, 3785
3269, 3434, 3520, 3468, 3845
3270, 3435, 3521, 3469, 3841
3271, 3553, 3436, 3464, 3516
3272, 3552, 3437, 3467, 3506
3273, 3465, 3438, 3282, 3477
3274, 3647, 3438, 3465, 3505
3275, 3341, 3405, 3439, 3829
3276, 3474, 3402, 3224, 3460
3277, 3466, 3848, 3518, 3831
3278, 3326, 3697, 3772, 3441
3279, 3442, 3395, 3684, 3338
3280, 3517, 3337, 3498, 3340
3281, 3650, 3334, 3538, 3338
3282, 3475, 3397, 3406, 3476
3283, 3715, 3400, 3721, 3225
3284, 3276, 3667, 3685, 3444
3285, 3867, 3797, 3445, 3807
3286, 3446, 3264, 3756, 3226
3287, 3446, 3399, 3415, 3760
3288, 3447, 3728, 3733, 3742
3289, 3389, 3423, 3448, 3816
3290, 3449, 3237, 3822, 3832
3291, 3450, 3280, 3586, 3225
3292, 3450, 3401, 3427, 3651
3293, 3449, 3451, 3830, 3237
3294, 3451, 3417, 3419, 3830
3295, 3815, 3452, 3840, 3239
3296, 3452, 3420, 3421, 3840
3297, 3789, 3453, 3257, 3777
3298, 3543, 3391, 3530, 3286
3299, 3560, 3542, 3283, 3659
3300, 3306, 3804, 3416, 3810
3301, 3320, 3738, 3745, 3454
3302, 3714, 3331, 3614, 3335
3303, 3314, 3456, 3410, 3819
3304,  153,  152, 3457, 3825
3305, 3332, 3470, 3842, 3458
3306, 3459, 3341, 3829, 3475
3307, 3831, 3474, 3834, 3466
3308, 3463, 3246, 3473, 3846
3309, 3464, 3476, 3340, 3498
3310, 3433, 3466, 3834, 3287
3311, 3478, 3289, 3486, 3467
3312, 3844, 3843, 3229, 3869
3313, 3479, 3845, 3468, 3245
3314, 3841, 3469, 3480, 3862
3315, 3863, 3862, 3885, 3490
3316, 3842, 3470, 3863, 3481
3317, 3282, 3461, 3471, 3477
3318, 3288, 3462, 3472, 3478
3319, 3479, 3496, 3473, 3845
3320, 3440, 3402, 3474, 3831
3321, 3485, 3851, 3281, 3504
3322, 3480, 3537, 3885, 3862
3323, 3886, 3532, 3551, 3323
3324, 3514, 3278, 3482, 3492
3325, 3515, 3299, 3483, 3494
3326, 3900, 3535, 3548, 3262
3327, 3284, 3849, 3485, 3504
3328, 3245, 3869, 3502, 3884
3329, 3488, 3837, 3501, 3333
3330, 3510, 3322, 3358, 3370
3331, 3842, 3489, 3328, 3458
3332, 3490, 3885, 3537, 3557
3333, 3281, 3477, 3491, 3860
3334, 3511, 3279, 3347, 3382
3335, 3514, 3492, 3526, 3273
3336, 3512, 3298, 3355, 3373
3337, 3515, 3494, 3527, 3308
3338, 3509, 3263, 3350, 3379
3339, 3846, 3495, 3255, 3463
3340, 3496, 3479, 3539, 3562
3341, 3254, 3484, 3496, 3562
3342, 3856, 3836, 3516, 3337
3343, 3528, 3300, 3544, 3499
3344, 3289, 3493, 3499, 3524
3345, 3860, 3491, 3878, 3500
3346, 3878, 3529, 3545, 3500
3347, 3538, 3894, 3872, 3554
3348, 3244, 3523, 3540, 3612
3349, 3869, 3245, 3487, 3844
3350, 3524, 3290, 3541, 3503
3351, 3503, 3577, 3868, 3486
3352, 3525, 3855, 3542, 3891
3353, 3847, 3519, 3531, 3285
3354, 3228, 3552, 3506, 3843
3355, 3507, 3487, 3468, 3520
3356, 3836, 3837, 3508, 3336
3357, 3864, 3513, 3615, 3489
3358, 3273, 3533, 3278, 3514
3359, 3515, 3308, 3883, 3534
3360, 3861, 3900, 3616, 3495
3361, 3516, 3464, 3498, 3337
3362, 3337, 3517, 3442, 3554
3363, 3519, 3543, 3286, 3848
3364, 3333, 3501, 3873, 3522
3365, 3523, 3559, 3539, 3884
3366, 3915, 3605, 3905, 3541
3367, 3525, 3891, 3281, 3860
3368, 3450, 3651, 3855, 3280
3369, 3556, 3274, 3348, 3381
3370, 3555, 3307, 3356, 3372
3371, 3534, 3528, 3299, 3515
3372, 3278, 3533, 3529, 3878
3373, 3531, 3519, 3848, 3536
3374, 3886, 3323, 3513, 3864
3375, 3273, 3550, 3908, 3533
3376, 3549, 3902, 3883, 3882
3377, 3563, 3548, 3535, 3253
3378, 3527, 3574, 3572, 3308
3379, 3557, 3576, 3561, 3490
3380, 3554, 3872, 3856, 3337
3381, 3559, 3583, 3562, 3539
3382, 3229, 3558, 3502, 3869
3383, 3612, 3540, 3230, 3628
3384, 3558, 3577, 3905, 3906
3385, 3560, 3391, 3543, 3284
3386, 3329, 3490, 3561, 3546
3387, 3564, 3879, 3578, 3595
3388, 3607, 3565, 3882, 3572
3389, 3549, 3673, 3568, 3902
3390, 3569, 3272, 3672, 3602
3391, 3555, 3315, 3660, 3574
3392, 3573, 3556, 3268, 3661
3393, 3546, 3561, 3582, 3330
3394, 3577, 3558, 3229, 3868
3395, 3562, 3583, 3547, 3254
3396, 3563, 3253, 3625, 3261
3397, 3590, 3606, 3267, 3599
3398, 3564, 3599, 3579, 3879
3399, 3550, 3590, 3593, 3272
3400, 3589, 3567, 3581, 3592
3401, 3601, 3580, 3567, 3589
3402, 3902, 3528, 3534, 3883
3403, 3277, 3901, 3569, 3602
3404, 3587, 3570, 3604, 3291
3405, 3290, 3544, 3570, 3587
3406, 3280, 3890, 3571, 3586
3407, 3526, 3573, 3606, 3273
3408, 3572, 3574, 3316, 3607
3409, 3617, 3579, 3661, 3644
3410, 3618, 3580, 3660, 3645
3411, 3613, 3596, 3243, 3652
3412, 3649, 3583, 3559, 3575
3413, 3335, 3614, 3597, 3443
3414, 3582, 3896, 3648, 3330
3415, 3564, 3595, 3892, 3591
3416, 3879, 3579, 3617, 3262
3417, 3618, 3865, 3567, 3580
3418, 3561, 3576, 3896, 3582
3419, 3921, 3547, 3583, 3649
3420, 3605, 3915, 3619, 3620
3421, 3601, 3589, 3317, 3588
3422, 3591, 3590, 3599, 3564
3423, 3588, 3317, 3594, 3309
3424, 3881, 3565, 3607, 3316
3425, 3622, 3592, 3325, 3663
3426, 3271, 3609, 3623, 3654
3427, 3260, 3624, 3611, 3640
3428, 3652, 3243, 3635, 3930
3429, 3616, 3598, 3263, 3509
3430, 3579, 3599, 3267, 3661
3431, 3615, 3600, 3322, 3510
3432, 3865, 3600, 3323, 3567
3433, 3316, 3580, 3601, 3881
3434, 3609, 3642, 3672, 3272
3435, 3602, 3672, 3642, 3638
3436, 3928, 3610, 3911, 3641
3437, 3673, 3610, 3928, 3568
3438, 3276, 3603, 3584, 3638
3439, 3225, 3586, 3603, 3715
3440, 3914, 3605, 3620, 3230
3441, 3324, 3566, 3330, 3893
3442, 3637, 3585, 3928, 3641
3443, 3610, 3309, 3594, 3911
3444, 3628, 3230, 3620, 3231
3445, 3597, 3614, 3896, 3576
3446, 3620, 3619, 3621, 3231
3447, 3626, 3292, 3656, 3629
3448, 3648, 3665, 3893, 3330
3449, 3665, 3648, 3331, 3857
3450, 3627, 3593, 3590, 3591
3451, 3654, 3623, 3871, 3266
3452, 3627, 3871, 3623, 3593
3453, 3253, 3921, 3666, 3625
3454, 3317, 3622, 3318, 3594
3455, 3631, 3628, 3231, 3632
3456, 3633, 3232, 3636, 3632
3457, 3664, 3630, 3301, 3668
3458, 3628, 3631, 3596, 3612
3459, 3633, 3632, 3231, 3621
3460, 3232, 3633, 3629, 3677
3461, 3242, 3655, 3635, 3932
3462, 3646, 3636, 3232, 3706
3463, 3242, 3932, 3636, 3646
3464, 3637, 3641, 3668, 3301
3465, 3638, 3642, 3667, 3276
3466, 3916, 3670, 3260, 3640
3467, 3668, 3641, 3310, 3694
3468, 3642, 3609, 3271, 3667
3469, 3669, 3643, 3893, 3665
3470, 3608, 3643, 3325, 3592
3471, 3658, 3268, 3349, 3380
3472, 3657, 3315, 3357, 3371
3473, 3916, 3252, 3691, 3670
3474, 3613, 3652, 3930, 3252
3475, 3712, 3680, 3689, 3319
3476, 3911, 3653, 3310, 3641
3477, 3683, 3931, 3646, 3690
3478, 3233, 3706, 3688, 3717
3479, 3681, 3713, 3687, 3662
3480, 3624, 3662, 3266, 3871
3481, 3699, 3675, 3678, 3326
3482, 3318, 3622, 3663, 3895
3483, 3302, 3639, 3664, 3698
3484, 3640, 3625, 3666, 3916
3485, 3685, 3693, 3716, 3275
3486, 3694, 3310, 3680, 3311
3487, 3692, 3785, 3772, 3697
3488, 3643, 3669, 3870, 3325
3489, 3671, 3709, 3695, 3933
3490, 3656, 3292, 3671, 3933
3491, 3319, 3689, 3895, 3675
3492, 3679, 3676, 3700, 3270
3493, 3686, 3925, 3931, 3683
3494, 3690, 3646, 3706, 3233
3495, 3693, 3679, 3270, 3716
3496, 3688, 3682, 3293, 3717
3497, 3683, 3920, 3926, 3686
3498, 3919, 3926, 3702, 3910
3499, 3686, 3757, 3701, 3925
3500, 3682, 3677, 3656, 3933
3501, 3710, 3690, 3233, 3924
3502, 3920, 3683, 3690, 3710
3503, 3696, 3918, 3691, 3703
3504, 3695, 3709, 3929, 3704
3505, 3669, 3692, 3697, 3870
3506, 3708, 3699, 3723, 3732
3507, 3877, 3888, 3887, 3265
3508, 3734, 3711, 3701, 3757
3509, 3251, 3655, 3701, 3711
3510, 3702, 3719, 3913, 3735
3511, 3919, 3910, 3250, 3757
3512, 3912, 3720, 3704, 3736
3513, 3293, 3695, 3704, 3720
3514, 3741, 3729, 3907, 3899
3515, 3698, 3705, 3927, 3302
3516, 3705, 3698, 3694, 3311
3517, 3733, 3728, 3707, 3722
3518, 3738, 3724, 3708, 3732
3519, 3302, 3927, 3729, 3923
3520, 3929, 3709, 3303, 3922
3521, 3719, 3920, 3710, 3917
3522, 3711, 3734, 3718, 3703
3523, 3680, 3712, 3726, 3311
3524, 3724, 3712, 3319, 3708
3525, 3725, 3877, 3265, 3713
3526, 3331, 3714, 3455, 3857
3527, 3447, 3716, 3270, 3728
3528, 3904, 3727, 3739, 3753
3529, 3752, 3889, 3758, 3767
3530, 3717, 3739, 3727, 3233
3531, 3737, 3722, 3876, 3854
3532, 3747, 3723, 3441, 3430
3533, 3732, 3723, 3747, 3327
3534, 3889, 3259, 3718, 3758
3535, 3258, 3758, 3718, 3734
3536, 3312, 3731, 3726, 3744
3537, 3740, 3743, 3234, 3759
3538, 3705, 3731, 3907, 3927
3539, 3923, 3303, 3709, 3671
3540, 3732, 3327, 3745, 3738
3541, 3269, 3742, 3733, 3737
3542, 3748, 3746, 3250, 3910
3543, 3751, 3913, 3241, 3764
3544, 3735, 3249, 3771, 3748
3545, 3704, 3929, 3922, 3736
3546, 3446, 3760, 3854, 3264
3547, 3739, 3720, 3294, 3753
3548, 3719, 3917, 3241, 3913
3549, 3763, 3312, 3750, 3776
3550, 3727, 3743, 3924, 3233
3551, 3234, 3743, 3727, 3904
3552, 3755, 3750, 3320, 3454
3553, 3746, 3748, 3771, 3773
3554, 3763, 3313, 3749, 3898
3555, 3736, 3775, 3774, 3304
3556, 3776, 3750, 3755, 3833
3557, 3767, 3786, 3778, 3756
3558, 3264, 3854, 3876, 3752
3559, 3780, 3769, 3234, 3904
3560, 3754,  168,  167, 3426
3561, 3833, 3755, 3321, 3429
3562, 3686, 3926, 3919, 3757
3563, 3758, 3258, 3786, 3767
3564, 3782, 3769, 3235, 3793
3565, 3241, 3740, 3759, 3764
3566, 3858, 3766, 3800, 3305
3567, 3761, 3294, 3720, 3912
3568, 3774, 3749, 3313, 3781
3569, 3874, 3770, 3783, 3790
3570, 3294, 3761, 3880, 3779
3571, 3788, 3780, 3765, 3295
3572, 3303, 3741, 3768, 3922
3573, 3866, 3787, 3248, 3867
3574, 3909, 3770, 3249, 3735
3575, 3773, 3771, 3777, 3257
3576, 3773, 3778, 3786, 3746
3577, 3775, 3736, 3922, 3768
3578, 3763, 3776, 3838, 3313
3579, 3248, 3249, 3770, 3874
3580, 3801, 3257, 3453, 3398
3581, 3765, 3779, 3875, 3295
3582, 3235, 3769, 3780, 3788
3583, 3791, 3781, 3313, 3838
3584, 3799, 3789, 3777, 3787
3585, 3789, 3799, 3808, 3453
3586, 3790, 3805, 3797, 3874
3587, 3791, 3314, 3813, 3800
3588, 3813, 3804, 3305, 3800
3589, 3240, 3782, 3793, 3796
3590, 3793, 3235, 3798, 3806
3591, 3788, 3809, 3798, 3235
3592, 3812, 3802, 3795, 3839
3593, 3305, 3839, 3795, 3858
3594, 3797, 3805, 3247, 3445
3595, 3874, 3797, 3867, 3248
3596, 3256, 3808, 3799, 3866
3597, 3809, 3794, 3853, 3852
3598, 3803,  171,  170, 3399
3599, 3807, 3411, 3811, 3256
3600, 3306, 3816, 3812, 3839
3601, 3812, 3296, 3853, 3802
3602, 3239, 3806, 3814, 3815
3603, 3236, 3809, 3852, 3818
3604, 3448, 3820, 3835, 3296
3605, 3832, 3820, 3297, 3390
3606, 3821, 3227, 3815, 3814
3607, 3835, 3822, 3818, 3852
3608, 3840, 3247, 3805, 3239
3609, 3825, 3827,  154,  153
3610, 3856, 3501, 3837, 3836
3611, 3843, 3506, 3868, 3229
3612, 3849, 3519, 3847, 3485
3613, 3296, 3835, 3852, 3853
3614, 3855, 3525, 3890, 3280
3615, 3792, 3880, 3766, 3858
3616, 3859, 3471, 3482, 3278
3617, 3525, 3860, 3500, 3890
3618, 3861, 3484, 3254, 3900
3619, 3470, 3841, 3862, 3863
3620, 3864, 3481, 3329, 3886
3621, 3501, 3856, 3872, 3873
3622, 3875, 3779, 3880, 3792
3623, 3877, 3752, 3876, 3888
3624, 3707, 3887, 3888, 3722
3625, 3752, 3877, 3725, 3889
3626, 3308, 3572, 3882, 3883
3627, 3259, 3889, 3725, 3903
3628, 3894, 3522, 3873, 3872
3629, 3312, 3763, 3898, 3899
3630, 3731, 3312, 3899, 3907
3631, 3901, 3529, 3533, 3908
3632, 3918, 3903, 3681, 3670
3633, 3914, 3906, 3905, 3605
3634, 3230, 3540, 3906, 3914
3635, 3909, 3735, 3913, 3751
3636, 3915, 3541, 3290, 3587
3637, 3649, 3252, 3666, 3921
3638, 3291, 3604, 3301, 3630
3664, 4141,  218,  217, 4081
3665,  216, 4109, 4081,  217
3666,  484, 4065, 4064,  483
3667, 4051,  485,  486, 4081
3668, 3938, 4109, 4149, 4551
3669, 3939, 4186, 4131, 4207
3670, 4231, 4130, 4098, 4155
3671, 4216, 4249, 4260, 4238
3672, 3945, 4277, 4238, 4260
3673, 4246, 4263, 4595, 4283
3674, 4294, 4267, 3956, 4308
3675, 4265, 4280, 4303, 3969
3676, 4285, 4248, 4265, 4352
3677, 4236, 4212, 4262, 3988
3678, 4256, 4275, 4000, 4590
3679, 4237, 4215, 4257, 4008
3680, 4237, 4008, 4276, 4258
3681, 4281, 4247, 4264, 4017
3682, 4284, 4272, 4610, 4036
3683, 4245, 4268, 4315, 4041
3684, 4261, 4235, 4213, 4242
3685, 4583, 4274, 4579, 4578
3686, 4569, 4154, 4278, 4251
3687, 4269, 4110,   86,   85
3688, 4549, 4269,   85,   84
3689, 4112, 4049, 4269, 4549
3690, 4097, 4550, 4113, 4546
3691,  439, 4114,   79,    3
3692, 4097,  441,  442, 4083
3693, 4096,  443,  444, 4084
3694, 4252, 4251, 4173, 4145
3695, 4516, 4111, 4154, 4047
3696,  209, 4519, 4098,  210
3697, 4099,  208,  207, 4129
3698, 4310, 3945, 4157, 3944
3699, 4499, 4099, 4129, 4157
3700, 3941, 4519, 4099, 4499
3701, 3944, 4157, 4129, 4531
3702, 4156, 4425, 4126, 4100
3703, 4419, 4432, 4400, 4409
3704, 4432, 4441, 4426, 3961
3705, 4415, 4396, 4403, 4586
3706, 4405, 4389, 4396, 3975
3707, 4630, 4398, 3985, 4465
3708, 4401, 4424, 4436, 4005
3709, 4391, 4411, 4420, 4495
3710, 4596, 4404, 4605, 4022
3711, 4395, 4397, 4416, 4028
3712, 4028, 4421, 4589, 4395
3713, 4039, 4505, 4139, 4515
3714, 4139, 4119,   96,   95
3715, 4118, 4136,   93,   92
3716, 4161, 4136, 4118, 4501
3717, 4118, 4514, 3936, 4501
3718, 4138, 4516, 4047, 4504
3719,   90,   89, 4138, 4117
3720, 4117, 4162, 3936, 4514
3721, 4288, 4299, 4317, 4301
3722, 4371, 4356, 4342, 4361
3723, 4505, 4456, 4119, 4139
3724,  200, 4520, 4100,  201
3725, 4101,  199,  198, 4125
3726, 4463, 3960, 4158, 3959
3727, 4158, 4500, 4101, 4125
3728, 3953, 4520, 4101, 4500
3729, 4102,  196,  195, 4107
3730, 4151, 4532, 4124, 4104
3731, 4507, 4517, 4528, 4512
3732, 4488, 4591, 4508, 3993
3733, 4486, 4482, 4506, 4002
3734, 4002, 4489, 4485, 4486
3735, 4115, 4497, 4159, 4133
3736, 4020, 4115,  104,  103
3737,  103,  102, 4103, 4020
3738,  100,   99, 4116, 4457
3739, 4132, 4448, 4033, 4435
3740,   99,   98, 4132, 4116
3741, 4435, 4442, 4116, 4132
3742, 4502, 4013, 4494, 4523
3743, 4491, 4011, 4159, 4012
3744,  191, 4538, 4104,  192
3745,  189, 4106, 4120,  190
3746, 3982, 4529, 4513, 4524
3747, 3972, 4120, 4106, 4150
3748, 4105,  187,  186, 4123
3749,  184, 4545, 4548,  185
3750, 4542, 4545,  113,  112
3751,  112,  111, 4121, 4542
3752, 3991, 4542, 4121, 4539
3753,  109,  108, 4122, 4544
3754, 4134, 4533, 4011, 4525
3755,  108,  107, 4134, 4122
3756, 4163, 3934, 4544, 4122
3757, 4506, 4518, 4526, 4002
3758, 4537, 4153, 4552, 4535
3759, 4123,  186,  185, 4548
3760, 4083, 4096, 4168, 3937
3761, 4095,  445,  446, 4085
3762, 4178, 4198, 4578, 4220
3763, 4044, 4255, 4235, 4261
3764, 4095, 4145, 4050, 4084
3765, 4094,  447,  448, 4093
3766, 4189, 4179, 4200, 4045
3767, 4242, 4041, 4288, 4261
3768, 4085, 4094, 4493, 4048
3769, 4086,  449,  450, 4092
3770, 4190, 4042, 4200, 4179
3771, 4600, 4353, 4315, 4268
3772, 4086, 4046, 4148, 4093
3773, 4087,  451,  452, 4091
3774, 4208, 4239, 4038, 4223
3775, 4599, 4272, 4234, 4254
3776, 4167, 4092, 4087, 4043
3777, 4090,  454,  455, 4089
3778, 4032, 4146, 4183, 4194
3779, 4304, 4026, 4266, 4025
3780,  456, 4080, 4089,  455
3781, 4203, 4227, 4241, 4564
3782, 4247, 4281, 4266, 4026
3783, 4089, 4080, 4146, 4032
3784, 4079,  458,  459, 4053
3785, 4192, 4181, 4204, 4018
3786, 4009, 4237, 4258, 4204
3787, 4027, 4224, 4203, 4564
3788, 4078,  460,  461, 4054
3789, 4053, 4078, 4171, 4019
3790, 4077,  462,  463, 4055
3791, 4219, 4560, 4001, 4270
3792, 4256, 4236, 3988, 4319
3793, 4054, 4077, 4147, 4010
3794, 4076,  464,  465, 4075
3795, 4188, 4182, 4205, 3989
3796, 4243, 3978, 4262, 4212
3797, 4055, 4076, 4270, 4001
3798, 4056,  466,  467, 4074
3799, 4193, 3979, 4205, 4182
3800, 4352, 4265, 3969, 4606
3801, 4056, 3990, 4142, 4075
3802, 4057,  468,  469, 4073
3803, 4273, 4290, 4240, 3971
3804, 4172, 4074, 4057, 3980
3805, 4072,  471,  472, 4059
3806, 4576, 4290, 4509, 4293
3807, 4282, 3957, 4267, 4294
3808, 4071,  473,  474, 4060
3809, 4313, 4328, 4592, 3957
3810, 4267, 4246, 4283, 3956
3811, 3964, 4358, 4348, 4509
3812, 4070,  475,  476, 4061
3813, 4180, 4202, 4191, 4559
3814, 4582, 4259, 4185, 3946
3815, 4201, 4328, 4222, 3952
3816, 4069,  477,  478, 4062
3817, 4260, 4249, 3941, 4499
3818, 4061, 4069, 4170, 3952
3819, 4068,  479,  480, 4063
3820, 4062, 4068, 4143, 3947
3821, 4067,  481,  482, 4066
3822, 4131,  213,  212, 4207
3823, 4063, 4067, 4271, 3943
3824, 4184, 4186, 3940, 4169
3825, 4174, 4232, 4217, 4195
3826, 4558, 4180, 3947, 4143
3827, 4325, 4496, 4291, 4310
3828, 4362, 4323, 4343, 4585
3829, 4344, 3963, 4308, 4323
3830, 4324, 4309, 4357, 4345
3831, 4300, 4316, 4332, 3977
3832, 4287, 4300, 4318, 4302
3833, 4330, 4302, 4629, 3987
3834, 4311, 4326, 4346, 4007
3835, 4359, 4297, 4611, 4612
3836, 4334, 4305, 4320, 4335
3837, 4286, 4305, 4314, 4296
3838, 4333, 4299, 4315, 4339
3839, 4044, 4261, 4288, 4301
3840, 4384, 4373, 4364, 4394
3841, 4521, 4128, 4127, 4164
3842, 4127,  204,  203, 4413
3843, 3956, 4343, 4323, 4308
3844, 4559, 4191, 4575, 4201
3845, 4419, 4409, 3953, 4500
3846, 3954, 4393, 4373, 4384
3847, 4383, 3955, 4373, 4393
3848, 4313, 3957, 4329, 4348
3849, 4441, 4443, 4584, 4426
3850, 4382, 3967, 4370, 4614
3851, 4510, 4443, 4463, 4557
3852, 4418, 4437, 4430, 3975
3853, 3974, 4447, 4430, 4437
3854, 4484, 4458, 4464, 4624
3855, 4633, 4632, 4429, 4635
3856, 4453, 4436, 4632, 4619
3857, 4022, 4440, 4431, 4422
3858, 4022, 4422, 4416, 4596
3859, 4475, 4461, 4467, 4476
3860, 3974, 4467, 4461, 4452
3861, 4152, 4522, 4102, 4107
3862, 4107,  195,  194, 4534
3863, 4572, 4581, 4446, 3965
3864, 4403, 4396, 3976, 4412
3865, 4370, 4355, 4341, 4631
3866, 4316, 4300, 3978, 4285
3867, 3971, 4240, 4206, 4221
3868, 3972, 4528, 4517, 4540
3869, 4452, 4468, 4478, 4603
3870, 3975, 4430, 4438, 4405
3871, 4389, 4405, 4398, 4625
3872, 4369, 4379, 4385, 4354
3873, 3976, 4379, 4355, 4370
3874, 3978, 4300, 4287, 4262
3875, 3980, 4193, 4182, 4172
3876, 4508, 3994, 4490, 4524
3877, 4477, 4470, 4474, 4483
3878, 4617, 4470, 4628, 4616
3879, 4635, 4458, 4454, 4633
3880, 4625, 4406, 3986, 4385
3881, 3998, 4390, 4386, 4350
3882, 4340, 3987, 4354, 4368
3883, 3988, 4302, 4330, 4319
3884, 3990, 4188, 4177, 4142
3885, 4527, 4518, 3993, 4513
3886, 4543, 4539, 4121, 4135
3887, 4618, 4466, 4004, 4473
3888, 4633, 4454, 4444, 4620
3889, 4365, 4350, 4386, 4375
3890, 4176, 4233, 4218, 4196
3891, 4487, 4003, 4604, 4485
3892, 4460, 4472, 4494, 4469
3893, 4460, 4004, 4466, 4472
3894, 4445, 4005, 4436, 4453
3895, 4411, 4401, 4005, 4445
3896, 4006, 4387, 4365, 4375
3897, 4374, 4007, 4365, 4387
3898, 4008, 4311, 4292, 4276
3899, 4181, 4563, 4187, 4204
3900, 4498, 4502, 4523, 4497
3901, 4455, 4440, 4450, 4014
3902, 4404, 4397, 4023, 4607
3903, 4367, 4351, 4621, 4627
3904, 4025, 4320, 4305, 4286
3905, 4181, 4192, 4019, 4171
3906, 4020, 4103, 4165, 4498
3907, 4397, 4395, 4589, 4380
3908, 4366, 4377, 4378, 4388
3909, 4351, 4366, 4024, 4621
3910, 4183, 4146, 4027, 4229
3911, 4589, 4402, 4029, 4380
3912, 4347, 4360, 4372, 4361
3913, 4360, 4347, 4613, 4030
3914, 4295, 4599, 4296, 4331
3915, 4361, 4342, 4035, 4347
3916, 4041, 4315, 4299, 4288
3917, 4038, 4239, 4199, 4225
3918, 4136, 4161, 4039, 4515
3919, 4043, 4190, 4179, 4167
3920, 4046, 4189, 4178, 4148
3921, 4220, 4565, 4048, 4493
3922, 4553, 4160, 4554, 4250
3923,    4,  113, 4545,  184
3924, 4541,  188,  187, 4105
3925,  188, 4541, 4106,  189
3926, 4538,  191,  190, 4120
3927,  192, 4104, 4124,  193
3928, 4530,  197,  196, 4102
3929, 4520,  200,  199, 4101
3930,  201, 4100, 4126,  202
3931,  204, 4127, 4128,  205
3932, 4519,  209,  208, 4099
3933,  210, 4098, 4130,  211
3934,  213, 4131, 4108,  214
3935, 4109, 3938, 4051, 4081
3936,  218, 4141,  488,    6
3937, 4546, 4114, 4082, 4097
3938,   83,   82, 4166, 4547
3939, 4137, 4112, 4549, 4547
3940, 4110, 4111,   87,   86
3941,   91,   90, 4117, 4514
3942, 4514, 4118,   92,   91
3943,   95,   94, 4515, 4139
3944,   97,   96, 4119, 4448
3945,  101,  100, 4457, 4140
3946, 4140, 4103,  102,  101
3947, 4115, 4133,  105,  104
3948,  110,  109, 4544, 4135
3949, 4135, 4121,  111,  110
3950,  485, 4051, 4065,  484
3951,  483, 4064, 4066,  482
3952, 3940, 4144, 4066, 4064
3953, 4232, 4063, 3943, 4217
3954, 4062, 3947, 4170, 4069
3955, 4061, 3952, 4222, 4070
3956, 4060, 3958, 4358, 4071
3957, 4059, 3964, 4273, 4072
3958, 4073, 4058, 3971, 4221
3959,  466, 4056, 4075,  465
3960, 4233, 4055, 4001, 4218
3961, 4054, 4010, 4171, 4078
3962, 4079, 4053, 4019, 4224
3963,  457, 4052, 4080,  456
3964, 4088, 4038, 4225, 4091
3965,  449, 4086, 4093,  448
3966, 4252, 4085, 4048, 4244
3967, 4084, 4050, 4168, 4096
3968, 4113, 4550, 3937, 4166
3969, 4114,  439,  440, 4082
3970, 3938, 4169, 4065, 4051
3971, 4052, 4027, 4146, 4080
3972, 4052,  457,  458, 4079
3973, 4203, 4224, 4019, 4192
3974, 4053,  459,  460, 4078
3975, 4054,  461,  462, 4077
3976, 4233, 4147, 4077, 4055
3977, 4055,  463,  464, 4076
3978, 4074,  467,  468, 4057
3979, 4056, 4074, 4172, 3990
3980, 4073,  469,  470, 4058
3981, 3980, 4221, 4206, 4193
3982, 4058,  470,  471, 4072
3983, 4059,  472,  473, 4071
3984, 4348, 4358, 3958, 4313
3985, 4060,  474,  475, 4070
3986, 4061,  476,  477, 4069
3987, 4062,  478,  479, 4068
3988, 4232, 4143, 4068, 4063
3989, 4063,  480,  481, 4067
3990, 4064, 4065, 4169, 3940
3991, 4067, 4066, 4144, 4271
3992, 4076, 4075, 4142, 4270
3993,  487, 4141, 4081,  486
3994,   81,   80, 4546, 4113
3995, 4082,  440,  441, 4097
3996, 4083, 3937, 4550, 4097
3997, 4083,  442,  443, 4096
3998, 4084,  444,  445, 4095
3999, 4095, 4085, 4252, 4145
4000, 4085,  446,  447, 4094
4001, 4092,  450,  451, 4087
4002, 4086, 4092, 4167, 4046
4003, 4091,  452,  453, 4088
4004, 4043, 4225, 4199, 4190
4005, 4088,  453,  454, 4090
4006, 4089, 4032, 4223, 4090
4007, 4208, 4223, 4032, 4194
4008, 4094, 4093, 4148, 4493
4009, 4155, 3941, 4249, 3942
4010, 4129,  207,  206, 4531
4011, 3954, 4409, 4400, 4393
4012, 4125,  198,  197, 4530
4013, 4158, 4125, 4530, 3959
4014, 4536, 4152, 4107, 4534
4015, 3959, 4530, 4102, 4522
4016, 3935, 4462, 4140, 4457
4017, 4151, 4540, 4517, 3973
4018, 3991, 4153, 4123, 4548
4019, 4541, 4105, 4537, 3981
4020, 4150, 3981, 4529, 3982
4021, 4152, 4536, 4476, 3965
4022, 4551, 4149, 4108, 4184
4023, 4109,  216,  215, 4149
4024, 4154, 4111, 4110, 4278
4025,   88,   87, 4111, 4516
4026, 4547, 4549,   84,   83
4027,   82,   81, 4113, 4166
4028,   80,   79, 4114, 4546
4029, 3935, 4457, 4116, 4442
4030, 4317, 4040, 4501, 3936
4031, 4033, 4448, 4119, 4456
4032, 4538, 4120, 3972, 4540
4033, 3934, 4543, 4135, 4544
4034, 3991, 4548, 4545, 4542
4035, 4536, 4534, 4124, 4532
4036, 3948, 4413, 4126, 4425
4037, 4384, 4394, 3948, 4425
4038, 3944, 4531, 4128, 4521
4039, 3945, 4310, 4291, 4277
4040, 3939, 4207, 4130, 4231
4041, 3940, 4186, 4175, 4144
4042, 4448, 4132,   98,   97
4043, 4427, 4421, 4435, 4033
4044, 4011, 4533, 4133, 4159
4045,  106,  105, 4133, 4533
4046, 4533, 4134,  107,  106
4047, 4489, 4002, 4163, 4525
4048, 4526, 3992, 4543, 3934
4049,   94,   93, 4136, 4515
4050, 4137, 4547, 4166, 3937
4051, 4160, 4168, 4050, 4554
4052, 4516, 4138,   89,   88
4053, 4255, 4044, 4504, 4047
4054, 4371, 4034, 4505, 4039
4055, 4439, 4462, 3935, 4434
4056, 4270, 4142, 4177, 4219
4057, 4143, 4232, 4174, 4558
4058, 4271, 4144, 4175, 3943
4059, 4147, 4233, 4176, 4562
4060, 4493, 4148, 4178, 4220
4061, 4149,  215,  214, 4108
4062, 3981, 4150, 4106, 4541
4063, 4150, 3982, 4528, 3972
4064, 4104, 4538, 4540, 4151
4065, 4475, 4532, 4151, 3973
4066, 4557, 4522, 4152, 3965
4067, 4123, 4153, 4537, 4105
4068, 4049, 4278, 4110, 4269
4069, 4255, 4047, 4154, 4274
4070, 4155, 4098, 4519, 3941
4071, 4570, 4231, 4155, 3942
4072, 3953, 4156, 4100, 4520
4073, 4384, 4425, 4156, 3954
4074, 3945, 4260, 4499, 4157
4075, 3960, 4419, 4500, 4158
4076, 4184, 4108, 4131, 4186
4077, 4497, 4115, 4020, 4498
4078, 4250, 4554, 4173, 4567
4079, 4112, 4137, 4160, 4553
4080, 4356, 4040, 4333, 4342
4081, 4301, 4162, 4504, 4044
4082, 4162, 4117, 4138, 4504
4083, 3992, 4552, 4539, 4543
4084, 4163, 4002, 4526, 3934
4085, 4163, 4122, 4134, 4525
4086, 4325, 4521, 4164, 3949
4087, 4034, 4503, 4456, 4505
4088, 4498, 4165, 4021, 4502
4089, 4165, 4103, 4140, 4462
4090, 4169, 3938, 4551, 4184
4091, 4170, 3947, 4180, 4559
4092, 4171, 4010, 4563, 4181
4093, 4145, 4173, 4554, 4050
4094, 4185, 4558, 4174, 3946
4095, 4175, 4186, 3939, 4210
4096, 4577, 4177, 4188, 3989
4097, 4198, 4178, 4189, 4045
4098, 4046, 4167, 4179, 4189
4099, 4185, 4202, 4180, 4558
4100, 3990, 4172, 4182, 4188
4101, 4168, 4160, 4137, 3937
4102, 4209, 4183, 4229, 4211
4103, 4194, 4183, 4209, 4031
4104, 4009, 4204, 4187, 4574
4105, 4177, 4577, 4197, 4219
4106, 4226, 4042, 4190, 4199
4107, 4592, 4246, 4267, 3957
4108, 4247, 4227, 4018, 4264
4109, 4227, 4203, 4192, 4018
4110, 4228, 3979, 4193, 4206
4111, 4253, 4230, 4031, 4234
4112, 4230, 4208, 4194, 4031
4113, 4216, 4582, 3946, 4580
4114, 4196, 4561, 4511, 4215
4115, 4560, 4219, 4197, 4000
4116, 4225, 4043, 4087, 4091
4117, 4226, 4199, 4239, 4037
4118, 4213, 4200, 4042, 4597
4119, 4222, 3958, 4060, 4070
4120, 4559, 4201, 3952, 4170
4121, 4202, 4185, 4259, 4279
4122, 4191, 4202, 4279, 3951
4123, 4224, 4027, 4052, 4079
4124, 4212, 4205, 3979, 4243
4125, 4221, 3980, 4057, 4073
4126, 4228, 4206, 4240, 3970
4127, 4207,  212,  211, 4130
4128, 4223, 4038, 4088, 4090
4129, 4210, 3939, 4231, 4570
4130, 4210, 4555, 3943, 4175
4131, 4031, 4209, 4211, 4234
4132, 3989, 4205, 4212, 4236
4133, 4200, 4213, 4214, 4045
4134, 4214, 4583, 4578, 4198
4135, 4236, 4256, 4590, 3989
4136, 4009, 4196, 4215, 4237
4137, 4215, 4511, 4587, 4257
4138, 4580, 3946, 4195, 4556
4139, 4249, 4216, 4580, 3942
4140, 4560, 4561, 4218, 4001
4141, 4244, 4048, 4565, 4566
4142, 4226, 4037, 4268, 4245
4143, 4575, 4592, 4328, 4201
4144, 4241, 4573, 4568, 4564
4145, 4248, 4228, 3970, 4265
4146, 4229, 4027, 4564, 4568
4147, 4573, 4211, 4229, 4568
4148, 4230, 4037, 4239, 4208
4149, 4253, 4234, 4272, 4284
4150, 4214, 4213, 4235, 4583
4151, 4259, 4582, 4277, 4601
4152, 4582, 4216, 4238, 4277
4153, 4273, 3971, 4058, 4072
4154, 4026, 4241, 4227, 4247
4155, 4242, 4597, 4245, 4041
4156, 4248, 4243, 3979, 4228
4157, 4251, 4252, 4244, 4569
4158, 4245, 4597, 4042, 4226
4159, 3951, 4263, 4246, 4592
4160, 4553, 4250, 4567, 4049
4161, 4037, 4230, 4253, 4593
4162, 4286, 4254, 4304, 4025
4163, 4289, 4240, 4290, 4576
4164, 4583, 4235, 4255, 4274
4165, 3999, 4275, 4256, 4319
4166, 4275, 4587, 4511, 4000
4167, 4257, 4598, 4326, 4008
4168, 4297, 4264, 4258, 4276
4169, 4018, 4204, 4258, 4264
4170, 4602, 4601, 4298, 4263
4171, 4025, 4266, 4281, 4320
4172, 4280, 4289, 4322, 4303
4173, 4316, 4285, 4352, 4332
4174, 4284, 4036, 4593, 4253
4175, 4295, 4610, 4272, 4599
4176, 4036, 4353, 4600, 4593
4177, 4290, 4273, 3964, 4509
4178, 4274, 4154, 4569, 4566
4179, 4587, 3999, 4598, 4257
4180, 4602, 4263, 3951, 4279
4181, 4278, 4049, 4567, 4251
4182, 4279, 4259, 4601, 4602
4183, 4307, 4322, 4312, 4306
4184, 4282, 4294, 4306, 4312
4185, 4293, 4282, 4312, 4576
4186, 4283, 4595, 4343, 3956
4187, 4037, 4593, 4600, 4268
4188, 4285, 3978, 4243, 4248
4189, 4024, 4314, 4305, 4334
4190, 4599, 4254, 4286, 4296
4191, 3988, 4262, 4287, 4302
4192, 3970, 4240, 4289, 4280
4193, 4329, 4293, 4509, 4348
4194, 4325, 4310, 3944, 4521
4195, 4298, 4291, 4496, 3950
4196, 4311, 4007, 4327, 4292
4197, 4292, 4611, 4297, 4276
4198, 4282, 4293, 4329, 3957
4199, 4306, 4294, 4308, 3963
4200, 4321, 4331, 4035, 4339
4201, 4295, 4331, 4321, 4610
4202, 4613, 4331, 4296, 4030
4203, 4017, 4264, 4297, 4359
4204, 4298, 3950, 4595, 4263
4205, 4291, 4298, 4601, 4277
4206, 4161, 4501, 4040, 4356
4207, 4355, 4626, 3977, 4341
4208, 3936, 4162, 4301, 4317
4209, 4307, 4309, 4303, 4322
4210, 4304, 4254, 4211, 4573
4211, 4314, 4024, 4366, 4388
4212, 4309, 4307, 3963, 4357
4213, 3955, 4344, 4323, 4362
4214, 3968, 4338, 4324, 4345
4215, 3969, 4303, 4309, 4324
4216, 4327, 4007, 4374, 4623
4217, 4328, 4313, 3958, 4222
4218, 4030, 4296, 4314, 4388
4219, 4352, 4606, 4338, 4332
4220, 4040, 4317, 4299, 4333
4221, 4318, 4300, 3977, 4626
4222, 4369, 4629, 4318, 4626
4223, 4319, 4330, 4337, 3999
4224, 4017, 4335, 4320, 4281
4225, 4339, 4035, 4342, 4333
4226, 4036, 4610, 4321, 4353
4227, 4322, 4289, 4576, 4312
4228, 3955, 4383, 4594, 4344
4229, 4631, 3968, 4614, 4370
4230, 3949, 4363, 4496, 4325
4231, 4337, 4349, 4598, 3999
4232, 4349, 4346, 4326, 4598
4233, 4340, 4337, 4330, 3987
4234, 4331, 4613, 4347, 4035
4235, 4332, 4338, 4341, 3977
4236, 4336, 4334, 4335, 4615
4237, 4335, 4017, 4359, 4615
4238, 4351, 4367, 4607, 4023
4239, 4334, 4336, 4621, 4024
4240, 4346, 4349, 3998, 4350
4241, 4609, 3968, 4345, 4357
4242, 4339, 4315, 4353, 4321
4243, 3986, 4368, 4354, 4385
4244, 4337, 4340, 3998, 4349
4245, 4356, 4371, 4039, 4161
4246, 4362, 4585, 4363, 4364
4247, 4609, 4357, 4594, 3962
4248, 4358, 3964, 4059, 4071
4249, 4007, 4346, 4350, 4365
4250, 4366, 4351, 4023, 4377
4251, 3987, 4629, 4369, 4354
4252, 4480, 3986, 4406, 4471
4253, 4357, 3963, 4344, 4594
4254, 4615, 4612, 4016, 4336
4255, 4388, 4378, 4360, 4030
4256, 4361, 4372, 4034, 4371
4257, 4496, 4363, 4585, 3950
4258, 4364, 4363, 3949, 4394
4259, 3955, 4362, 4364, 4373
4260, 4391, 4495, 4387, 4006
4261, 4376, 4336, 4016, 4381
4262, 4607, 4414, 4605, 4404
4263, 3997, 4386, 4390, 4480
4264, 4379, 4369, 4626, 4355
4265, 4029, 4372, 4360, 4378
4266, 4503, 4029, 4402, 4427
4267, 4016, 4623, 4374, 4381
4268, 4634, 4410, 4006, 4375
4269, 4015, 4622, 4376, 4381
4270, 4380, 4377, 4023, 4397
4271, 4378, 4377, 4380, 4029
4272, 4385, 4379, 4389, 4625
4273, 4389, 4379, 3976, 4396
4274, 4381, 4374, 4387, 4495
4275, 4399, 3961, 4407, 3962
4276, 4407, 4408, 4382, 4392
4277, 4399, 4383, 4393, 4400
4278, 4594, 4383, 4399, 3962
4279, 4390, 3998, 4340, 4368
4280, 4386, 3997, 4634, 4375
4281, 4390, 4368, 3986, 4480
4282, 4636, 4391, 4006, 4410
4283, 3968, 4609, 4392, 4614
4284, 3962, 4407, 4392, 4609
4285, 4394, 3949, 4164, 3948
4286, 3948, 4164, 4127, 4413
4287, 4402, 4589, 4421, 4427
4288, 3976, 4370, 3967, 4412
4289, 4398, 4405, 4438, 3985
4290, 4607, 4367, 4622, 4414
4291, 4596, 4416, 4397, 4404
4292, 4465, 3985, 4464, 4458
4293, 4406, 4625, 4398, 4630
4294, 4408, 4407, 3961, 4426
4295, 3961, 4399, 4400, 4432
4296, 4409, 3954, 4156, 3953
4297, 4586, 4403, 4417, 3966
4298, 4423, 4414, 4622, 4015
4299, 4450, 4440, 4022, 4605
4300, 3967, 4382, 4408, 4433
4301, 4428, 4410, 4634, 4471
4302, 4636, 4410, 4424, 4401
4303, 4014, 4420, 4411, 4445
4304, 4401, 4411, 4391, 4636
4305, 4412, 3967, 4433, 4417
4306, 4413,  203,  202, 4126
4307, 4420, 4423, 4015, 4495
4308, 3975, 4396, 4415, 4418
4309, 4581, 4415, 4586, 4446
4310, 4014, 4450, 4423, 4420
4311, 4028, 4442, 4435, 4421
4312, 4439, 4434, 4422, 4431
4313, 4416, 4422, 4434, 4028
4314, 4605, 4414, 4423, 4450
4315, 4428, 4429, 4424, 4410
4316, 4433, 4408, 4426, 4584
4317, 4427, 4033, 4456, 4503
4318, 4429, 4428, 3996, 4635
4319, 4620, 4444, 4473, 4004
4320, 4436, 4424, 4429, 4632
4321, 4438, 4430, 4447, 4451
4322, 4431, 4449, 4021, 4439
4323, 4432, 4419, 3960, 4441
4324, 3966, 4417, 4433, 4584
4325, 4442, 4028, 4434, 3935
4326, 4165, 4462, 4439, 4021
4327, 4437, 4572, 4467, 3974
4328, 4440, 4455, 4449, 4431
4329, 4443, 4441, 3960, 4463
4330, 3966, 4584, 4443, 4510
4331, 4473, 4444, 3995, 4477
4332, 4459, 4455, 4014, 4445
4333, 3974, 4452, 4603, 4447
4334, 4449, 4013, 4502, 4021
4335, 3985, 4438, 4451, 4464
4336, 4571, 4461, 4475, 3973
4337, 4453, 4619, 4460, 4469
4338, 4455, 4459, 4013, 4449
4339, 4465, 4458, 4635, 3996
4340, 4444, 4454, 4484, 3995
4341, 3959, 4522, 4557, 4463
4342, 4459, 4445, 4453, 4469
4343, 4472, 4466, 4003, 4487
4344, 4468, 4571, 4507, 3983
4345, 4464, 4451, 3984, 4624
4346, 4616, 4628, 4624, 3984
4347, 3996, 4428, 4471, 4406
4348, 4406, 4630, 4465, 3996
4349, 3965, 4476, 4467, 4572
4350, 3983, 4608, 4478, 4468
4351, 4468, 4452, 4461, 4571
4352, 4013, 4459, 4469, 4494
4353, 4616, 4478, 4608, 4617
4354, 4628, 3995, 4484, 4624
4355, 4494, 4472, 4012, 4523
4356, 4481, 4473, 4477, 4483
4357, 3983, 4492, 4474, 4608
4358, 4532, 4475, 4476, 4536
4359, 4470, 4477, 3995, 4628
4360, 4603, 4478, 4616, 3984
4361, 4479, 4588, 4591, 4482
4362, 4481, 3994, 4588, 4618
4363, 4485, 4604, 4482, 4486
4364, 4506, 4482, 4591, 4488
4365, 4483, 4474, 4492, 4490
4366, 3994, 4481, 4483, 4490
4367, 4487, 4485, 4489, 4491
4368, 4012, 4472, 4487, 4491
4369, 4506, 4488, 3993, 4518
4370, 4525, 4011, 4491, 4489
4371, 4524, 4490, 4492, 4512
4372, 4512, 4492, 3983, 4507
4373, 4497, 4523, 4012, 4159
4374, 4503, 4034, 4372, 4029
4375, 3973, 4517, 4507, 4571
4376, 4508, 4524, 4513, 3993
4377, 3965, 4446, 4510, 4557
4378, 3966, 4510, 4446, 4586
4379, 4529, 4535, 4527, 4513
4380, 3992, 4526, 4518, 4527
4381, 3982, 4524, 4512, 4528
4382, 4529, 3981, 4537, 4535
4383, 4531,  206,  205, 4128
4384, 4534,  194,  193, 4124
4385, 3992, 4527, 4535, 4552
4386, 3991, 4539, 4552, 4153
4387, 4556, 4555, 3942, 4580
4388, 4217, 3943, 4555, 4556
4389, 4561, 4560, 4000, 4511
4390, 4010, 4147, 4562, 4563
4391, 4565, 4220, 4578, 4579
4392, 4566, 4565, 4579, 4274
4393, 4555, 4210, 4570, 3942
4394, 4581, 4572, 4437, 4418
4395, 4573, 4241, 4026, 4304
4396, 4187, 4563, 4562, 4574
4397, 4574, 4176, 4196, 4009
4398, 4575, 4191, 3951, 4592
4399, 4577, 3989, 4590, 4197
4400, 3950, 4585, 4343, 4595
4401, 3994, 4508, 4591, 4588
4402, 4618, 4588, 4479, 4466
4403, 4603, 3984, 4451, 4447
4404, 4003, 4466, 4479, 4604
4405, 4606, 3969, 4324, 4338
4406, 4617, 4608, 4474, 4470
4407, 4611, 4292, 4327, 4623
4408, 4612, 4611, 4623, 4016
4409, 4004, 4460, 4619, 4620
4410, 4632, 4633, 4620, 4619
4411, 4627, 4621, 4336, 4376
4412, 4622, 4367, 4627, 4376
4413, 4341, 4338, 3968, 4631
4414, 3997, 4480, 4471, 4634
4436, 4651,   45,   44, 5237
4437, 5233, 5242, 4857, 4650
4438, 5261, 5225, 5216, 5208
4439, 4653, 5206, 5203, 5197
4440, 4662, 5184, 5288, 5191
4441, 5157, 5187, 5172, 5167
4442, 4678, 5137, 5125, 5105
4443, 5109, 4685, 5067, 5097
4444, 4690, 4996, 4982, 4957
4445, 4916, 4694, 5271, 4937
4446, 4698, 5257, 4933, 4879
4447, 4874, 4801, 4755, 4700
4448, 4800,  495,  496, 4756
4449, 4800, 4846, 4700, 4755
4450, 4799,  497,  498, 4798
4451, 4909, 4893, 4887, 5270
4452, 4948, 4961, 4980, 4942
4453, 5038, 5023, 5292, 5006
4454, 5077, 5094, 5113, 5090
4455, 4672, 5117, 5131, 5136
4456, 5168, 5312, 5159, 4663
4457, 5177, 5170, 5196, 4653
4458, 5284, 5220, 5200, 4708
4459, 5223, 5227, 4868, 4709
4460,   52, 4822, 4812,   53
4461, 4803,   50,   49, 4837
4462, 5221, 4803, 5227, 4719
4463, 4823,   47,   46, 4845
4464, 4845,   46,   45, 4651
4465, 4836,  301,  300, 4637
4466, 4637,  300,  299, 4835
4467, 4834,  298,  297, 5234
4468, 5215, 5203, 5206, 4652
4469, 4835, 4864, 5226, 4637
4470, 5228, 5232, 5225, 5261
4471, 4824, 4870, 4651, 5237
4472,  303, 5237,   44,    2
4473, 4824,  302,  301, 4836
4474, 5234,  297,  296, 4811
4475, 4660, 5234, 4811, 4861
4476,  295, 4842, 4811,  296
4477, 4804,  293,  292, 4810
4478, 5218, 4804, 4810, 4853
4479, 4669, 5222, 4804, 5218
4480, 5213, 4638, 5212, 4810
4481, 5174, 4683, 5165, 4833
4482,  285, 4688, 4825,  286
4483, 5128, 5017, 4689, 4855
4484,  281, 4844, 5134,  282
4485, 4831,  280,  279, 5089
4486, 5089,  279,  278, 4830
4487, 4805, 4972, 5073, 4830
4488, 4879, 5244, 5243, 4949
4489, 4916, 4952, 4972, 4697
4490, 4844, 4856, 4639, 5134
4491, 4982, 4996, 5017, 4998
4492, 5109, 5101, 5082, 4685
4493, 5125, 5137, 4677, 5139
4494, 4809, 4865, 4638, 5213
4495, 4833,  289,  288, 5174
4496,  276, 4944, 4805,  277
4497, 4826,  275,  274, 5238
4498,  493, 4801, 4757,  492
4499, 4863, 4932, 4826, 5238
4500, 4699, 4944, 4826, 4932
4501, 4871, 4640, 4843, 5236
4502,  489, 4806,  269,    7
4503,  491, 4802, 4758,  490
4504, 4807, 5235, 4802, 5239
4505, 4756, 4799, 5062, 4698
4506, 4759,  499,  500, 4797
4507, 5019, 5003, 4961, 4686
4508, 4680, 5004, 5034, 5041
4509, 4672, 5094, 5083, 5107
4510, 5132, 5124, 5152, 4654
4511, 5164, 5178, 5193, 4647
4512, 4759, 4695, 4851, 4798
4513, 4760,  501,  502, 4796
4514, 4968, 4985, 4941, 4687
4515, 4674, 4992, 4964, 4978
4516, 5035, 5058, 5020, 4674
4517, 5085, 5069, 4664, 5327
4518, 5102, 5324, 5099, 5318
4519, 5151, 5130, 5320, 5133
4520, 4707, 5194, 5178, 5164
4521, 4719, 5214, 4822, 5221
4522, 4877, 4797, 4760, 4692
4523, 4795,  504,  505, 4762
4524, 4985, 5074, 4681, 5019
4525, 5314, 4945, 4959, 4993
4526, 5063, 4987, 5026, 4665
4527, 5048, 5045, 5046, 5050
4528, 5104, 5070, 5339, 5331
4529, 5290, 5118, 5176, 5149
4530, 5210, 5179, 4717, 5195
4531,   53, 4812, 5230,   54
4532, 4822,   52,   51, 5221
4533, 4794,  506,  507, 4763
4534, 5011, 5027, 5303, 4675
4535, 4971, 4936, 4657, 4987
4536, 5051, 5045, 5048, 5008
4537, 5044, 5047, 5033, 5341
4538, 5321, 5086, 5110, 5309
4539, 5153, 5161, 4716, 5142
4540, 4858, 5202, 4827, 4838
4541, 4827,   56,   55, 4838
4542, 4838,   55,   54, 5230
4543, 4682, 5071, 5060, 5074
4544, 4793,  508,  509, 4764
4545, 4884, 4903, 4895, 5256
4546, 4915, 4951, 4936, 5293
4547, 4704, 5341, 4997, 5015
4548, 5123, 4715, 5142, 4716
4549, 5188, 5175, 4725, 5156
4550, 4725, 5175, 5153, 5144
4551, 4904, 5027, 4923, 4668
4552, 4792,  510,  511, 4765
4553, 4970, 4988, 4955, 4643
4554, 5337, 5015, 4703, 4983
4555, 5112, 5078, 5338, 5081
4556, 5141, 5114, 5121, 5146
4557, 5182, 4828, 4839, 4854
4558,   60, 5160, 4814,   61
4559, 4828,   59,   58, 4839
4560, 4740, 5160, 4828, 5182
4561, 4764, 4792, 4872, 4668
4562, 4791,  512,  513, 4766
4563, 4919, 4878, 4899, 5277
4564, 4914, 4958, 5313, 4939
4565, 4995, 5013, 5053, 4714
4566, 5095, 5068, 5091, 5114
4567, 5138, 5126, 4739, 5163
4568, 4732, 5121, 5114, 5091
4569, 4765, 4791, 4847, 4659
4570, 4790,  514,  515, 4789
4571, 4890, 4885, 4905, 4702
4572, 4946, 4963, 5306, 4981
4573, 5005, 5040, 4723, 5021
4574, 5091, 4731, 5103, 4732
4575, 4869, 5166, 4841, 4814
4576, 5135, 5138, 5163, 5180
4577, 4766, 4790, 4966, 4641
4578, 4767,  516,  517, 4788
4579, 4896, 4712, 4905, 4885
4580, 4730, 4990, 5302, 5037
4581, 5111, 5096, 5084, 5108
4582,   62, 4841, 5183,   63
4583, 4767, 4701, 4850, 4789
4584, 4768,  518,  519, 4787
4585, 4969, 4984, 4940, 4720
4586, 4737, 4990, 4976, 4962
4587, 5036, 5056, 5022, 4737
4588, 4862, 5127, 4840, 4818
4589,   64, 4818, 4840,   65
4590, 4818,   64,   63, 5183
4591, 4873, 4788, 4768, 4711
4592, 4786,  521,  522, 4770
4593, 4984, 5075, 4729, 5018
4594, 4977, 4947, 4960, 5315
4595, 5024, 5064, 4986, 5007
4596, 4785,  523,  524, 4771
4597, 4928, 5275, 5028, 4908
4598, 5304, 4973, 4938, 4747
4599, 4860, 5065, 4816, 4819
4600,   69, 5100, 4815,   70
4601, 4816,   68,   67, 4819
4602, 4751, 5100, 4816, 5065
4603, 4728, 5072, 5059, 5075
4604, 4784,  525,  526, 4772
4605, 5273, 4897, 4886, 5251
4606, 5283, 4938, 4746, 4917
4607, 4953, 4746, 4938, 4973
4608, 4908, 5028, 4924, 4741
4609, 4783,  527,  528, 4773
4610, 4892, 4881, 4900, 4746
4611, 4931, 4820, 4815, 4859
4612, 4747, 4938, 5283, 4954
4613, 4772, 4783, 4876, 4741
4614, 4782,  529,  530, 4774
4615, 4930, 5246, 4749, 4965
4616,   71, 4820, 4911,   72
4617, 4751, 4954, 4967, 4859
4618, 4773, 4782, 4848, 4745
4619, 4781,  531,  532, 4780
4620, 4817,   74,   73, 4821
4621, 4821,   73,   72, 4911
4622, 4774, 4781, 4965, 4749
4623, 4775,  533,  534, 4779
4624, 4775, 4779, 4875, 4752
4625, 4776,  535,  536, 4778
4626,   77, 4778, 4777,   78
4627,   78, 4777,  538,    3
4628,  537, 4777, 4778,  536
4629, 5169, 4832, 4825, 4866
4630, 4688, 5129, 4866, 4825
4631, 4922, 4641, 5253, 5254
4632, 4951, 4915, 4970, 4643
4633, 5008, 4657, 5025, 5051
4634, 4646, 5120, 5093, 5130
4635, 5140, 5154, 5329, 4646
4636, 5170, 5299, 5181, 5196
4637, 5206, 5204, 5216, 4652
4638, 4649, 5261, 5208, 5220
4639, 5229, 5228, 5261, 4649
4640, 5228, 5229, 5233, 4650
4641, 5197, 5162, 5177, 4653
4642, 5184, 5162, 5197, 5298
4643, 5317, 5132, 5312, 5116
4644, 5069, 4656, 5324, 5092
4645, 4987, 4657, 5008, 5026
4646, 5293, 4950, 4894, 4658
4647, 5255, 4884, 4659, 4847
4648, 5147, 5158, 4671, 5131
4649, 5158, 5147, 4663, 5159
4650, 4664, 5311, 5117, 5327
4651, 5107, 4665, 5085, 5327
4652, 4667, 4959, 4945, 5303
4653, 5256, 4895, 5272, 4904
4654, 5122, 4678, 5090, 5113
4655, 4672, 5136, 5113, 5094
4656, 4673, 5094, 5077, 5034
4657, 4674, 5020, 5004, 4992
4658, 4964, 4992, 5287, 4675
4659, 5011, 4675, 5030, 5060
4660, 5105, 5097, 5067, 4679
4661, 5097, 5105, 5125, 4684
4662, 5041, 5038, 5006, 4680
4663, 5014, 5052, 4996, 4690
4664, 4687, 4941, 4910, 4925
4665,  283, 4808, 4829,  284
4666, 4829, 4855, 5101, 4688
4667, 4957, 4982, 5296, 4913
4668, 4690, 4957, 4942, 4980
4669, 4692, 4898, 4887, 4877
4670, 4694, 5262, 4882, 4893
4671, 4701, 4890, 4878, 4850
4672, 4702, 4939, 4918, 4899
4673, 4997, 5016, 4703, 5015
4674, 5039, 5044, 5341, 4704
4675, 5098, 5331, 5339, 4705
4676, 4711, 4896, 4885, 4873
4677, 4712, 4943, 4914, 4905
4678, 4713, 4995, 4983, 4958
4679, 5086, 5333, 5123, 5110
4680, 5161, 5189, 5295, 5176
4681, 4717, 5179, 5171, 5149
4682, 4720, 4940, 4906, 4926
4683, 5013, 4995, 4713, 4981
4684, 5112, 5081, 4724, 5119
4685, 4724, 5141, 5144, 5119
4686, 5294, 4963, 4721, 5018
4687, 5040, 5037, 4731, 5316
4688, 4731, 5091, 5068, 5316
4689, 5173, 4733, 4854, 4734
4690, 5010, 5276, 5029, 5059
4691, 4736, 4962, 4976, 4989
4692, 5022, 5302, 4990, 4737
4693, 5096, 5076, 4738, 5084
4694, 4897, 5274, 5252, 4886
4695, 5291, 4960, 4947, 5275
4696, 5084, 5080, 5269, 5108
4697, 5251, 4886, 4745, 4848
4698, 5007, 4747, 5065, 4860
4699, 4881, 4934, 4920, 4900
4700, 4889, 4891, 4752, 4875
4701, 5235, 4806, 4758, 4802
4702, 4944,  276,  275, 4826
4703,  277, 4805, 4830,  278
4704,  280, 4831, 4844,  281
4705,  282, 5134, 4808,  283
4706, 4688,  285,  284, 4829
4707,  286, 4825, 4832,  287
4708,  289, 4833, 4809,  290
4709, 5222,  294,  293, 4804
4710,  298, 4834, 4835,  299
4711, 5237,  303,  302, 4824
4712, 4779, 4776, 4754, 4875
4713,  533, 4775, 4780,  532
4714, 4752, 4849, 4780, 4775
4715, 4934, 4774, 4749, 4920
4716, 4773, 4745, 4876, 4783
4717, 4772, 4741, 4924, 4784
4718, 4771, 4735, 5072, 4785
4719, 4770, 4728, 4969, 4786
4720, 4787, 4769, 4720, 4926
4721,  516, 4767, 4789,  515
4722, 4935, 4766, 4641, 4922
4723, 4765, 4659, 4872, 4792
4724, 4764, 4668, 4923, 4793
4725, 4763, 4676, 5071, 4794
4726, 4762, 4682, 4968, 4795
4727, 4796, 4761, 4687, 4925
4728,  499, 4759, 4798,  498
4729, 4949, 4756, 4698, 4879
4730,  494, 4755, 4801,  493
4731,  492, 4757, 4802,  491
4732, 4806,  489,  490, 4758
4733,   48,   47, 4823, 4710
4734, 5221,   51,   50, 4803
4735, 5192,   57,   56, 4827
4736, 5160,   60,   59, 4828
4737,   61, 4814, 4841,   62
4738, 5143,   66,   65, 4840
4739, 5100,   69,   68, 4816
4740,   70, 4815, 4820,   71
4741, 4852,   75,   74, 4817
4742, 4813, 4754, 4776, 4778
4743, 4757, 4801, 4874, 4640
4744, 4755,  494,  495, 4800
4745, 4846, 4800, 4756, 4949
4746, 4756,  496,  497, 4799
4747, 4757, 4640, 5239, 4802
4748, 4797,  500,  501, 4760
4749, 4759, 4797, 4877, 4695
4750, 4796,  502,  503, 4761
4751, 4692, 4925, 4910, 4898
4752, 4761,  503,  504, 4795
4753, 4762,  505,  506, 4794
4754, 5060, 5071, 4676, 5011
4755, 4763,  507,  508, 4793
4756, 4764,  509,  510, 4792
4757, 4765,  511,  512, 4791
4758, 4935, 4847, 4791, 4766
4759, 4766,  513,  514, 4790
4760, 4788,  517,  518, 4768
4761, 4767, 4788, 4873, 4701
4762, 4787,  519,  520, 4769
4763, 4711, 4926, 4906, 4896
4764, 4769,  520,  521, 4786
4765, 4770,  522,  523, 4785
4766, 5059, 5072, 4735, 5010
4767, 4771,  524,  525, 4784
4768, 4772,  526,  527, 4783
4769, 4773,  528,  529, 4782
4770, 4934, 4848, 4782, 4774
4771, 4774,  530,  531, 4781
4772, 4779,  534,  535, 4776
4773, 4778,   77,   76, 4813
4774, 4781, 4780, 4849, 4965
4775, 4790, 4789, 4850, 4966
4776, 4799, 4798, 4851, 5062
4777, 4837,   49,   48, 4710
4778, 4868, 4837, 4710, 5231
4779, 4810,  292,  291, 5213
4780, 4956, 4933, 5260, 4697
4781,  270,  269, 4806, 5235
4782,  272,  271, 4807, 4871
4783, 5235, 4807,  271,  270
4784, 4855, 4829, 4808, 5128
4785, 4833, 5165, 4865, 4809
4786, 4670, 5212, 5172, 5259
4787, 4842,  295,  294, 5222
4788, 5217, 4861, 4811, 4842
4789, 4867, 5224, 4812, 4822
4790, 4727, 5230, 4812, 5224
4791, 4813,   76,   75, 4852
4792, 4819,   67,   66, 5143
4793, 4860, 4819, 5143, 4748
4794, 4821, 4911, 4753, 4891
4795, 5240, 4852, 4817, 4889
4796, 5186, 5108, 5269, 4862
4797, 5007, 4986, 5304, 4747
4798, 4753, 4911, 4820, 4931
4799, 4752, 4891, 4880, 4849
4800, 5205, 5248, 5214, 4719
4801, 4845, 4651, 4870, 4857
4802, 5241, 4836, 4637, 5232
4803, 5238, 5236, 4843, 4863
4804, 4888, 4843, 4640, 4874
4805, 4727, 4858, 4838, 5230
4806, 4734, 5192, 4827, 5202
4807, 4839,   58,   57, 5192
4808, 4696, 5089, 4830, 5073
4809, 5267, 5066, 4696, 4952
4810, 4856, 4844, 4831, 5066
4811, 4683, 5174, 4832, 5169
4812, 5165, 5155, 5263, 4865
4813, 5215, 4652, 5250, 4660
4814, 4864, 4835, 4834, 5250
4815, 4650, 5241, 5232, 5228
4816, 5245, 4709, 4868, 5231
4817, 5211, 5258, 4727, 5224
4818, 5173, 5156, 5150, 4733
4819, 4748, 5143, 4840, 5127
4820, 5186, 5183, 4841, 5166
4821, 5280, 5281, 5217, 4669
4822, 4888, 4874, 4700, 5243
4823, 5244, 4879, 4699, 4932
4824, 4847, 4935, 4883, 5255
4825, 4848, 4934, 4881, 5251
4826, 4965, 4849, 4880, 4930
4827, 4966, 4850, 4878, 4919
4828, 4882, 4851, 4695, 4893
4829, 5062, 4851, 4882, 4921
4830, 4754, 4813, 4852, 5240
4831, 5201, 4853, 4670, 5191
4832, 5163, 4740, 5182, 5180
4833, 5128, 4808, 5134, 4639
4834, 4689, 5082, 5101, 4855
4835, 5066, 4831, 5089, 4696
4836, 4856, 4693, 4998, 4639
4837, 4823, 4845, 4857, 5242
4838, 5198, 5202, 4858, 4726
4839, 4859, 4815, 5100, 4751
4840, 4931, 4750, 4912, 4753
4841, 4889, 4817, 4821, 4891
4842, 5065, 4747, 4954, 4751
4843, 5281, 5207, 4861, 5217
4844, 5186, 4862, 4818, 5183
4845, 5127, 4744, 5024, 4748
4846, 5250, 4834, 5234, 4660
4847, 5226, 4864, 5250, 4652
4848, 5157, 5167, 5263, 4677
4849, 5266, 4684, 5125, 5139
4850, 4956, 4805, 4944, 4699
4851, 4972, 4952, 4696, 5073
4852, 5224, 4867, 5210, 5211
4853, 4803, 4837, 4868, 5227
4854, 5111, 5166, 4869, 4739
4855, 4857, 4870, 5241, 4650
4856, 4870, 4824, 4836, 5241
4857,  273,  272, 4871, 5236
4858, 4872, 4659, 4884, 5256
4859, 4875, 4754, 5240, 4889
4860, 4745, 4886, 5252, 4876
4861, 4878, 4890, 4702, 4899
4862, 4846, 4949, 5243, 4700
4863, 4880, 4891, 4753, 4912
4864, 5254, 5253, 4642, 5278
4865, 4894, 5255, 4883, 4658
4866, 4894, 4903, 4884, 5255
4867, 4701, 4873, 4885, 4890
4868, 4897, 5273, 4907, 4742
4869, 5270, 4887, 4898, 4691
4870, 4695, 4877, 4887, 4893
4871, 4863, 4843, 4888, 4932
4872, 4892, 5273, 5251, 4881
4873, 4901, 5262, 4694, 4916
4874, 5303, 4945, 4964, 4675
4875, 5272, 5303, 5027, 4904
4876, 4927, 4712, 4896, 4906
4877, 5274, 4928, 4908, 5252
4878, 4929, 4691, 4898, 4910
4879, 4900, 5247, 4917, 4746
4880, 4697, 5260, 4901, 4916
4881, 4658, 5278, 4915, 5293
4882, 4903, 4894, 4950, 4974
4883, 4667, 4895, 4903, 4974
4884, 4923, 4676, 4763, 4793
4885, 5256, 4904, 4668, 4872
4886, 4926, 4711, 4768, 4787
4887, 4927, 4906, 4940, 4721
4888, 4892, 4953, 4907, 5273
4889, 4924, 4735, 4771, 4784
4890, 5252, 4908, 4741, 4876
4891, 5286, 4909, 5270, 4691
4892, 4694, 4893, 4909, 5271
4893, 4925, 4692, 4760, 4796
4894, 4929, 4910, 4941, 4686
4895, 5268, 5246, 4930, 4750
4896, 4913, 5296, 4937, 5271
4897, 5286, 4942, 4957, 4913
4898, 4713, 4958, 4914, 4943
4899, 4702, 4905, 4914, 4939
4900, 4657, 4936, 4951, 5025
4901, 5278, 4658, 4902, 5254
4902, 5267, 4937, 5296, 4693
4903, 4954, 5283, 5282, 4967
4904, 5307, 4955, 4988, 4918
4905, 4988, 5277, 4899, 4918
4906, 4641, 4966, 4919, 5253
4907, 4698, 5062, 4921, 5257
4908, 4922, 4902, 4883, 4935
4909, 4667, 5303, 5272, 4895
4910, 4946, 4927, 4721, 4963
4911, 5291, 5274, 4897, 4742
4912, 5010, 5028, 5275, 5276
4913, 4930, 4880, 4912, 4750
4914, 4750, 4931, 4859, 4967
4915, 4936, 4971, 4950, 5293
4916, 4693, 4856, 5066, 5267
4917, 4955, 5307, 5016, 5322
4918, 4969, 4720, 4769, 4786
4919, 4968, 4687, 4761, 4795
4920, 4691, 4948, 4942, 5286
4921, 4946, 4943, 4712, 4927
4922, 5260, 4933, 5257, 4901
4923, 4964, 4945, 5314, 4978
4924, 4947, 4977, 4962, 4736
4925, 5275, 4947, 4736, 5276
4926, 4961, 4948, 4929, 4686
4927, 4721, 4940, 4984, 5018
4928, 4971, 4993, 4974, 4950
4929, 4642, 4970, 4915, 5278
4930, 5025, 4951, 4643, 5042
4931, 4952, 4916, 4937, 5267
4932, 4986, 4975, 4973, 5304
4933, 4975, 4907, 4953, 4973
4934, 4967, 5282, 5268, 4750
4935, 5307, 4918, 4939, 5313
4936, 4972, 4805, 4956, 4697
4937, 4933, 4956, 4699, 4879
4938, 4703, 5313, 4958, 4983
4939, 4907, 4975, 5300, 4742
4940, 4981, 5306, 5087, 5013
4941, 4979, 5287, 4992, 5001
4942, 4985, 4968, 4682, 5074
4943, 4984, 4969, 4728, 5075
4944, 4988, 4970, 4642, 5277
4945, 4974, 4993, 4959, 4667
4946, 4994, 4743, 5300, 4975
4947, 5064, 4994, 4975, 4986
4948, 5012, 5003, 5019, 4681
4949, 4961, 5000, 5305, 4980
4950, 5009, 5002, 5018, 4729
4951, 5009, 4989, 4976, 5002
4952, 4743, 5315, 4960, 5300
4953, 4977, 5315, 5036, 4737
4954, 5294, 5018, 5002, 5297
4955, 5297, 5002, 4730, 5005
4956, 4978, 4666, 5035, 4674
4957, 4979, 5012, 4991, 5287
4958, 4981, 4713, 4943, 4946
4959, 4693, 5296, 4982, 4998
4960, 4941, 4985, 5019, 4686
4961, 4729, 5029, 4989, 5009
4962, 5030, 4991, 5074, 5060
4963, 4748, 5024, 5007, 4860
4964, 5026, 5008, 5048, 5049
4965, 4987, 5063, 4993, 4971
4966, 5287, 4991, 5030, 4675
4967, 5001, 4992, 5004, 4680
4968, 5314, 4993, 5063, 4666
4969, 4690, 4980, 5305, 5014
4970, 5016, 4997, 5031, 5322
4971, 5005, 4999, 5294, 5297
4972, 5306, 4999, 4722, 5087
4973, 5305, 5000, 5006, 5292
4974, 5000, 4961, 5003, 5006
4975, 5003, 5001, 4680, 5006
4976, 5001, 5003, 5012, 4979
4977, 5002, 4976, 4990, 4730
4978, 5020, 4673, 5034, 5004
4979, 5005, 5021, 4722, 4999
4980, 4685, 5023, 5038, 5067
4981, 5028, 5010, 4735, 4924
4982, 5027, 5011, 4676, 4923
4983, 4991, 5012, 4681, 5074
4984, 5021, 5057, 5087, 4722
4985, 5087, 5057, 5053, 5013
4986, 5055, 5088, 5292, 5023
4987, 5014, 5088, 5055, 5052
4988, 5342, 5336, 5043, 5054
4989, 5322, 5031, 5032, 5323
4990, 4689, 5017, 4996, 5052
4991, 4639, 4998, 5017, 5128
4992, 4738, 5076, 5037, 5302
4993, 5064, 5024, 4744, 5301
4994, 4643, 5323, 5325, 5042
4995, 5042, 5335, 5051, 5025
4996, 5029, 4729, 5075, 5059
4997, 5032, 5031, 5341, 5033
4998, 5044, 5039, 4705, 5339
4999, 5032, 5033, 5047, 4644
5000, 5038, 5041, 4679, 5067
5001, 4666, 5063, 5079, 5035
5002, 5079, 5063, 4665, 5330
5003, 4730, 5037, 5040, 5005
5004, 5301, 5080, 5310, 4743
5005, 5301, 4744, 5269, 5080
5006, 5336, 4704, 5015, 5337
5007, 5041, 5034, 5077, 4679
5008, 5045, 5051, 5335, 5046
5009, 5078, 5043, 4714, 5338
5010, 5054, 5043, 5078, 5334
5011, 5046, 5047, 4645, 5050
5012, 4644, 5047, 5046, 5335
5013, 4645, 5047, 5044, 5070
5014, 4656, 5049, 5048, 5050
5015, 5049, 4656, 5069, 5085
5016, 5050, 4645, 5061, 5099
5017, 5052, 5055, 5082, 4689
5018, 5053, 5057, 5328, 5081
5019, 5333, 5086, 5332, 5334
5020, 5340, 4705, 5039, 5342
5021, 5055, 5023, 4685, 5082
5022, 5056, 5080, 5084, 4738
5023, 5022, 5056, 4738, 5302
5024, 5057, 5021, 4723, 5328
5025, 5330, 5058, 5035, 5079
5026, 4673, 5020, 5058, 5319
5027, 5072, 4728, 4770, 4785
5028, 5071, 4682, 4762, 4794
5029, 5093, 5061, 4645, 5070
5030, 5330, 5083, 5319, 5058
5031, 4743, 4994, 5064, 5301
5032, 5085, 4665, 5026, 5049
5033, 5105, 4679, 5090, 4678
5034, 4656, 5050, 5099, 5324
5035, 5130, 5093, 5104, 5320
5036, 5096, 5126, 5103, 5076
5037, 4731, 5037, 5076, 5103
5038, 5338, 4714, 5053, 5081
5039, 5334, 5078, 5112, 4715
5040, 5080, 5056, 5036, 5310
5041, 5036, 5315, 4743, 5310
5042, 5101, 5109, 5129, 4688
5043, 5327, 5117, 4672, 5107
5044, 5319, 5083, 5094, 4673
5045, 5108, 5186, 5166, 5111
5046, 5334, 5332, 5340, 5054
5047, 5088, 5014, 5305, 5292
5048, 5092, 5324, 5102, 5115
5049, 5120, 5106, 5061, 5093
5050, 5068, 5095, 5328, 4723
5051, 4739, 5126, 5096, 5111
5052, 5097, 4684, 5129, 5109
5053, 5332, 5098, 4705, 5340
5054, 5331, 4706, 5320, 5104
5055, 5099, 5061, 5106, 5318
5056, 5168, 4655, 5116, 5312
5057, 5115, 5102, 5168, 4663
5058, 4646, 5329, 5106, 5120
5059, 5107, 5083, 5330, 4665
5060, 5110, 5123, 4716, 5118
5061, 5321, 5098, 5332, 5086
5062, 4724, 5081, 5328, 5095
5063, 5131, 4671, 5145, 5136
5064, 5135, 5121, 4732, 5138
5065, 4724, 5095, 5114, 5141
5066, 4664, 5092, 5115, 5311
5067, 5312, 5132, 5148, 5159
5068, 5289, 4707, 5133, 5308
5069, 5309, 5110, 5118, 5290
5070, 5144, 5153, 5142, 5119
5071, 4715, 5112, 5119, 5142
5072, 5146, 5121, 5135, 5150
5073, 5136, 5145, 5122, 5113
5074, 5122, 5145, 5137, 4678
5075, 5154, 5326, 5124, 5329
5076, 5317, 5106, 5329, 5124
5077, 5115, 4663, 5147, 5311
5078, 5311, 5147, 5131, 5117
5079, 5155, 5139, 4677, 5263
5080, 4732, 5103, 5126, 5138
5081, 4744, 5127, 4862, 5269
5082, 4647, 5140, 5151, 5164
5083, 5148, 5132, 4654, 5162
5084, 5130, 5151, 5140, 4646
5085, 4706, 5321, 5309, 5308
5086, 5150, 5135, 5180, 4733
5087, 5163, 4739, 4869, 4740
5088, 5169, 5266, 5139, 4683
5089, 5299, 5154, 5140, 4647
5090, 5144, 5141, 5146, 4725
5091, 5145, 5157, 4677, 5137
5092, 5157, 5145, 4671, 5187
5093, 5146, 5150, 5156, 4725
5094, 5162, 4654, 5152, 5177
5095, 5148, 4662, 5185, 5159
5096, 5118, 4716, 5161, 5176
5097, 4740, 4869, 4814, 5160
5098, 5151, 5133, 4707, 5164
5099, 5326, 5170, 5177, 5152
5100, 5161, 5153, 5175, 5189
5101, 4683, 5139, 5155, 5165
5102, 5188, 5198, 4726, 5279
5103, 4638, 5167, 5172, 5212
5104, 5158, 5159, 5185, 5190
5105, 5149, 5176, 5295, 4717
5106, 5148, 5162, 5184, 4662
5107, 4647, 5193, 5181, 5299
5108, 5167, 4638, 4865, 5263
5109, 5102, 5318, 4655, 5168
5110, 5169, 4866, 4684, 5266
5111, 5196, 5181, 4648, 5204
5112, 5289, 5171, 5194, 4707
5113, 5212, 4670, 4853, 4810
5114, 4734, 4854, 4839, 5192
5115, 5188, 5156, 5173, 5198
5116, 5174,  288,  287, 4832
5117, 5175, 5188, 5279, 5189
5118, 5200, 5193, 5178, 4708
5119, 4717, 5295, 5219, 5195
5120, 5179, 5249, 5194, 5171
5121, 4854, 4733, 5180, 5182
5122, 5199, 4661, 5281, 5280
5123, 5185, 4662, 5191, 5190
5124, 5259, 4671, 5158, 5190
5125, 5259, 5172, 5187, 4671
5126, 4670, 5259, 5190, 5191
5127, 5199, 5288, 5184, 5298
5128, 4648, 5181, 5193, 5200
5129, 5178, 5194, 5205, 4708
5130, 5211, 5195, 5219, 5258
5131, 5198, 5173, 4734, 5202
5132, 5288, 5209, 5201, 5191
5133, 5284, 4708, 5205, 5223
5134, 5201, 5209, 5218, 4853
5135, 5203, 5215, 5207, 5285
5136, 5203, 5285, 5298, 5197
5137, 5214, 4718, 4867, 4822
5138, 4653, 5196, 5204, 5206
5139, 5204, 4648, 5208, 5216
5140, 5220, 5208, 4648, 5200
5141, 5207, 5215, 4660, 4861
5142, 5285, 5207, 5281, 4661
5143, 4669, 5218, 5209, 5280
5144, 4718, 5179, 5210, 4867
5145, 5284, 5265, 5264, 5220
5146, 5213,  291,  290, 4809
5147, 5223, 5205, 4719, 5227
5148, 5217, 4842, 5222, 4669
5149, 5189, 5279, 5219, 5295
5150, 4726, 5258, 5219, 5279
5151, 5223, 4709, 5265, 5284
5152, 4652, 5216, 5225, 5226
5153, 4649, 5220, 5264, 5229
5154, 5242, 5231, 4710, 4823
5155, 5231, 5242, 5233, 5245
5156, 5232, 4637, 5226, 5225
5157, 5245, 5233, 5229, 5264
5158,  273, 5236, 5238,  274
5159, 4807, 5239, 4640, 4871
5160, 4932, 4888, 5243, 5244
5161, 5247, 5246, 5268, 4917
5162, 4920, 4749, 5246, 5247
5163, 5249, 5248, 5205, 5194
5164, 4718, 5214, 5248, 5249
5165, 5253, 4919, 5277, 4642
5166, 5262, 4901, 5257, 4921
5167, 5258, 4726, 4858, 4727
5168, 4709, 5245, 5264, 5265
5169, 5271, 4909, 5286, 4913
5170, 5291, 5275, 4928, 5274
5171, 5276, 4736, 4989, 5029
5172, 5280, 5209, 5288, 5199
5173, 4917, 5268, 5282, 5283
5174, 5298, 5285, 4661, 5199
5175, 5149, 5171, 5289, 5290
5176, 5290, 5289, 5308, 5309
5177, 5291, 4742, 5300, 4960
5178, 4963, 5294, 4999, 5306
5179, 5299, 5170, 5326, 5154
5180, 4703, 5016, 5307, 5313
5181, 5308, 5133, 5320, 4706
5182, 5317, 5116, 4655, 5106
5183, 5098, 5321, 4706, 5331
5184, 4643, 4955, 5322, 5323
5185, 5325, 5323, 5032, 4644
5186, 5040, 5316, 5068, 4723
5187, 5337, 4983, 4995, 4714
5188, 4715, 5123, 5333, 5334
5189, 4714, 5043, 5336, 5337
5190, 5335, 5042, 5325, 4644
5191, 5342, 5039, 4704, 5336
5213,  304, 5961, 5964,  305
5214, 5953, 5561, 5968, 5951
5215, 5354, 5936, 5923, 5904
5216, 5358, 5899, 5902, 6022
5217, 5366, 5887, 5893, 5868
5218, 5375, 6048, 5849, 5858
5219, 5786, 5757, 5794, 5992
5220, 5717, 5704, 5394, 5733
5221, 5651, 5627, 6006, 6014
5222, 5630, 5982, 5402, 5913
5223, 5580, 5505, 5468, 5404
5224, 5504,  545,  546, 5469
5225, 5504, 5554, 5404, 5468
5226, 5503,  547,  548, 5502
5227, 5598, 5591, 5615, 5398
5228, 5682, 5701, 5661, 5390
5229, 5761, 5741, 5726, 5773
5230, 5376, 5811, 5789, 5799
5231, 5861, 5844, 5359, 5865
5232, 5891, 5874, 5359, 5881
5233, 5904, 5353, 5926, 5354
5234, 5423, 5531, 5550, 5568
5235,  311, 5954, 5530,  312
5236, 5531,  310,  309, 5550
5237, 5954, 5531, 5423, 5956
5238, 5532,  307,  306, 5538
5239, 5538,  306,  305, 5964
5240,   41,   40, 5534, 5507
5241,   40,   39, 5960, 5534
5242,   38,   37, 5514, 5535
5243, 5899, 5357, 5905, 5902
5244, 5572, 5345, 5960, 5535
5245, 5923, 5936, 5943, 5357
5246, 5959, 5955, 5507, 5534
5247, 5958, 5961,   43,   42
5248,   42,   41, 5507, 5958
5249,   37,   36, 5948, 5514
5250, 5562, 5536, 5533, 5901
5251, 5365, 5898, 5887, 5882
5252, 5907, 5949, 5562, 5365
5253, 5906, 5533,   34,   33
5254, 5515, 5539,   32,   31
5255, 5374, 5867, 5849, 5859
5256, 5909, 5908, 5539, 5515
5257, 5542, 5871, 5386, 5877
5258, 5931, 5508,   25,   24
5259, 5344, 5919, 5517, 5932
5260,   21,   20, 5509, 5932
5261,   20,   19, 5518, 5509
5262,   19,   18, 5933, 5518
5263, 5565, 5519, 5510, 5693
5264, 5665, 5585, 5658, 5983
5265, 5933, 5519, 5565, 5400
5266, 5674, 5691, 5627, 5651
5267, 5509, 5567, 5344, 5932
5268, 5704, 5717, 5736, 5719
5269, 5786, 5771, 5393, 5757
5270, 5848, 5854, 5836, 5839
5271, 5872, 5911, 5573, 5381
5272,   29,   28, 5542, 5516
5273, 5685, 5510,   16,   15
5274, 5547,   14, 5965, 5566
5275,  543, 5505, 5470,  542
5276, 5547, 5566, 5664, 5969
5277, 5506, 5966, 5511, 5962
5278,  539, 5512,    9,    1
5279,  541, 5506, 5471,  540
5280, 5469, 5503, 5913, 5402
5281, 5472,  549,  550, 5501
5282, 5603, 5395, 5615, 5591
5283, 5720, 5682, 5390, 5697
5284, 5725, 5759, 5383, 5723
5285, 6055, 5799, 5789, 5377
5286, 5834, 5807, 5827, 5367
5287, 5850, 5844, 5837, 6058
5288, 5890, 5879, 5883, 5896
5289, 5924, 5935, 5945, 5929
5290, 5472, 5399, 5556, 5502
5291, 5473,  551,  552, 5500
5292, 5669, 5706, 5654, 5981
5293, 5683, 5699, 5711, 5698
5294, 6053, 5760, 5740, 5378
5295, 5802, 5781, 5360, 5807
5296, 5818, 5826, 6057, 5835
5297, 5897, 5863, 5879, 5890
5298, 5875, 5889, 5857, 5866
5299, 5575, 5947, 5537, 5530
5300, 5423, 5945, 5935, 5956
5301, 5581, 5501, 5473, 5396
5302, 5499,  554,  555, 5475
5303, 5707, 5927, 5384, 5739
5304, 5660, 5680, 5370, 5699
5305, 5914, 5708, 5742, 6037
5306, 5781, 5766, 5790, 5360
5307, 5821, 5815, 5410, 5873
5308, 5852, 5838, 5421, 5857
5309, 5884, 5866, 5876, 5886
5310,  313, 5537, 5950,  314
5311, 5575, 5956, 5935, 5422
5312, 5391, 5688, 5669, 5981
5313,  556, 5498, 5475,  555
5314, 5998, 5745, 5612, 5639
5315, 5692, 5652, 5362, 5708
5316, 5727, 5743, 5765, 5762
5317, 5805, 5803, 5349, 5756
5318, 5838, 6027, 5845, 5421
5319, 5985, 5878, 5574, 5974
5320,  316, 5546, 5885,  317
5321, 5529,  315,  314, 5950
5322, 5774, 5764, 5980, 5385
5323, 5497,  558,  559, 5476
5324, 5602, 5590, 5997, 5371
5325, 5652, 5628, 5675, 5362
5326, 5796, 5801, 5785, 5809
5327, 5829, 5813, 5820, 5830
5328, 5855, 5853, 5831, 5429
5329, 5634, 5612, 5745, 5380
5330, 5496,  560,  561, 5477
5331, 5363, 5583, 5606, 6001
5332, 5625, 5671, 5689, 5991
5333, 5734, 5705, 5716, 6043
5334, 5758, 6040, 5772, 5418
5335, 5812, 5925, 5819, 5436
5336, 5559, 5444, 5540, 5528
5337,  321, 5548, 5527,  322
5338,  318, 5528, 5540,  319
5339, 5476, 5496, 5578, 5372
5340,  562, 5467, 5477,  561
5341, 5629, 5346, 5632, 5347
5342, 6031, 5649, 6023, 5624
5343, 5716, 5732, 5749, 6043
5344, 5788, 5763, 5776, 6011
5345, 5812, 5797, 5814, 5918
5346, 5477, 5467, 5555, 5364
5347,  563, 5478, 5467,  562
5348, 5610, 6008, 5589, 5601
5349, 5684, 5702, 5659, 5700
5350, 5738, 5712, 5748, 5427
5351, 5795, 5782, 5792, 5797
5352, 5563, 5915, 5527, 5548
5353, 5478, 5495, 5686, 5346
5354,  566, 5479, 5466,  565
5355, 6007, 5610, 5601, 5611
5356, 5687, 5426, 5700, 5995
5357, 5703, 5722, 5731, 5713
5358, 5767, 5752, 5793, 5783
5359,  322, 5527, 5934,  323
5360, 5939, 5563, 5548, 5942
5361, 5466, 5479, 5405, 5553
5362, 5480,  568,  569, 5493
5363, 5653, 5424, 5670, 5425
5364, 5434, 5648, 5667, 6035
5365, 6034, 5737, 5722, 5703
5366, 5571, 5917, 5526, 5545
5367,  325, 5526, 5937,  326
5368, 5545,  324,  323, 5934
5369, 5415, 5577, 5494, 5480
5370, 5492,  571,  572, 5481
5371, 5432, 5551, 5594, 5605
5372, 5662, 5681, 5696, 6042
5373, 5709, 5744, 5775, 5447
5374, 5737, 6034, 5441, 6042
5375, 5633, 5620, 5670, 5424
5376,  573, 5465, 5481,  572
5377, 5994, 5655, 5617, 5977
5378, 6013, 6020, 5690, 5650
5379, 5569, 5916, 5549, 5525
5380,  330, 5541, 5524,  331
5381,  327, 5525, 5549,  328
5382, 5481, 5465, 5551, 5432
5383,  574, 5482, 5465,  573
5384, 5672, 6012, 6002, 5663
5385, 5673, 5451, 5650, 5690
5386, 5635, 5617, 5655, 5439
5387,  577, 5490, 5483,  576
5388, 5599, 5587, 5608, 5451
5389, 5560, 5541, 5938, 5456
5390, 5456, 5672, 5663, 5560
5391, 5582, 5490, 5462, 5450
5392, 5489,  579,  580, 5484
5393, 5988, 5971, 5644, 5455
5394,  331, 5524, 5618,  332
5395, 5541,  330,  329, 5938
5396, 5462, 5489, 5552, 5450
5397,  581, 5464, 5484,  580
5398,  334, 5522, 5558,  335
5399, 5523,  333,  332, 5618
5400, 5484, 5464, 5677, 5454
5401, 5485,  583,  584, 5487
5402, 5485, 5487, 5579, 5457
5403,  586, 5463, 5486,  585
5404, 5486, 5463, 5521, 5459
5405,  338, 5544,  588,    8
5406,  336, 5521, 5463,  337
5407, 5854, 5386, 5570, 5387
5408, 5786, 5992, 5922, 5392
5409, 5583, 5646, 5629, 5606
5410, 5675, 5628, 5928, 5689
5411, 5743, 5727, 5362, 5675
5412, 5790, 5766, 5803, 5350
5413, 5826, 5818, 5360, 5790
5414, 5850, 6058, 5351, 5860
5415, 5895, 5903, 5899, 5358
5416, 5357, 5899, 5903, 5923
5417, 5413, 5946, 5930, 5940
5418, 5944, 5936, 5354, 5930
5419, 5865, 5882, 5887, 5366
5420, 5807, 5360, 5818, 5827
5421, 5791, 5361, 5781, 5802
5422, 5708, 5362, 5727, 5742
5423, 5676, 5363, 6001, 6010
5424, 5979, 5590, 5578, 5364
5425, 5859, 5849, 6048, 5843
5426, 5810, 5806, 5368, 6054
5427, 5371, 5680, 5660, 5639
5428, 5590, 5602, 5372, 5578
5429, 5817, 5832, 5839, 6047
5430, 5832, 5825, 5375, 5858
5431, 5378, 5740, 5725, 5711
5432, 5379, 5683, 5698, 6005
5433, 5746, 5730, 6005, 5710
5434, 5798, 6021, 5794, 5808
5435, 5388, 5808, 5794, 5757
5436, 5393, 5717, 5733, 5754
5437, 5768, 5682, 5720, 5389
5438, 5614, 5981, 5654, 5640
5439,   24,   23, 5513, 5931
5440, 5513, 5564, 5392, 5931
5441, 5623, 5679, 5651, 6014
5442, 5679, 5657, 5394, 5704
5443, 5396, 5603, 5591, 5581
5444, 5630, 5586, 5607, 5999
5445, 5607, 5586, 5598, 5398
5446, 5984, 5600, 5989, 5588
5447, 6009, 6023, 5649, 5625
5448, 5407, 5718, 5735, 5671
5449, 5408, 5770, 5756, 6028
5450, 5860, 5351, 5863, 5897
5451, 5411, 5883, 5879, 5870
5452, 5415, 5601, 5589, 5577
5453, 5417, 5716, 5705, 5678
5454, 5796, 5772, 6050, 5419
5455, 5813, 5419, 6050, 5820
5456, 5846, 6030, 5838, 5852
5457, 5866, 5857, 5421, 5876
5458, 5424, 5653, 5611, 5637
5459, 5426, 5769, 5684, 5700
5460, 5732, 5716, 5417, 5702
5461, 6040, 6038, 5777, 6041
5462, 5419, 5813, 5804, 5796
5463, 5434, 5687, 5668, 5648
5464, 5434, 5713, 5712, 5687
5465, 5435, 5776, 5763, 5748
5466, 5862, 5869, 5855, 5847
5467, 5594, 5551, 5439, 5642
5468, 5662, 5441, 5721, 5440
5469, 5782, 5442, 5767, 5792
5470, 5977, 5976, 5604, 5994
5471, 5641, 5681, 5662, 5440
5472, 5975, 5592, 5450, 5552
5473, 5569, 5728, 5452, 5916
5474, 5587, 5647, 5631, 5608
5475, 5595, 5597, 5457, 5579
5476, 5533, 5536,   35,   34
5477, 5910, 5515,   31,   30
5478,   30,   29, 5516, 5910
5479, 5508, 5543,   26,   25
5480, 5517, 5513,   23,   22
5481,   22,   21, 5932, 5517
5482, 5510, 5519,   17,   16
5483, 5520, 5963, 5576, 5343
5484,   13,   12, 5576, 5963
5485, 5962, 5512, 5471, 5506
5486,  587, 5544, 5463,  586
5487, 5487, 5486, 5459, 5579
5488, 5488, 5485, 5457, 5557
5489, 5464,  581,  582, 5488
5490, 5647, 5484, 5454, 5631
5491,  578, 5462, 5490,  577
5492, 5483, 5445, 5635, 5491
5493, 5492, 5481, 5432, 5633
5494,  570, 5461, 5493,  569
5495,  565, 5466, 5495,  564
5496, 5478,  563,  564, 5495
5497, 5477, 5364, 5578, 5496
5498, 5497, 5476, 5372, 5634
5499,  557, 5460, 5498,  556
5500, 5475, 5385, 5688, 5499
5501, 5474, 5391, 5636, 5500
5502,  549, 5472, 5502,  548
5503, 5666, 5469, 5402, 5658
5504,  544, 5468, 5505,  543
5505,  542, 5470, 5506,  541
5506, 5512,  539,  540, 5471
5507, 5544,  338,  337, 5463
5508, 5522,  334,  333, 5523
5509, 5938,  329,  328, 5549
5510,  326, 5937, 5525,  327
5511, 5526,  325,  324, 5545
5512, 5942,  320,  319, 5540
5513,  317, 5885, 5528,  318
5514,  315, 5529, 5546,  316
5515,  312, 5530, 5537,  313
5516, 5954,  311,  310, 5531
5517, 5957,  308,  307, 5532
5518,    2,   43, 5961,  304
5519, 5764, 5774, 5380, 5730
5520, 5460,  557,  558, 5497
5521, 5461,  570,  571, 5492
5522, 5483, 5490, 5582, 5445
5523, 5462,  578,  579, 5489
5524, 5488,  582,  583, 5485
5525, 5464, 5488, 5557, 5677
5526, 5482,  574,  575, 5491
5527, 5551, 5465, 5482, 5439
5528, 5479,  566,  567, 5494
5529, 5495, 5466, 5553, 5686
5530, 5646, 5555, 5467, 5478
5531, 5470, 5505, 5580, 5343
5532, 5468,  544,  545, 5504
5533, 5554, 5504, 5469, 5666
5534, 5469,  546,  547, 5503
5535, 5470, 5343, 5966, 5506
5536,   11,   10, 5962, 5511
5537, 5501,  550,  551, 5473
5538, 5472, 5501, 5581, 5399
5539, 5500,  552,  553, 5474
5540, 5396, 5636, 5614, 5603
5541, 5614, 5636, 5391, 5981
5542, 5474,  553,  554, 5499
5543, 5612, 5634, 5372, 5602
5544, 5476,  559,  560, 5496
5545, 5646, 5478, 5346, 5629
5546, 5494,  567,  568, 5480
5547, 5479, 5494, 5577, 5405
5548, 5415, 5637, 5611, 5601
5549, 5620, 5633, 5432, 5605
5550, 5491,  575,  576, 5483
5551, 5635, 5445, 5977, 5617
5552, 5647, 5552, 5489, 5484
5553, 5487,  584,  585, 5486
5554, 5493, 5461, 5424, 5637
5555, 5460, 5380, 5774, 5498
5556, 5503, 5502, 5556, 5913
5557, 5345, 5959, 5534, 5960
5558, 5356, 5958, 5507, 5955
5559, 5570, 5543, 5508, 5922
5560, 5400, 5921, 5518, 5933
5561, 5986, 5401, 5693, 5403
5562,   12,   11, 5511, 5576
5563,   10,    9, 5512, 5962
5564, 5905, 5357, 5572, 5941
5565, 5572, 5535, 5514, 5941
5566, 5909, 5867, 5374, 5908
5567, 5911, 5910, 5516, 5573
5568, 5393, 5771, 5736, 5717
5569, 5921, 5674, 5397, 5567
5570,   18,   17, 5519, 5933
5571,   13, 5963, 5965,   14
5572, 5593, 5580, 5404, 5970
5573, 5521,  336,  335, 5558
5574, 5523, 5618, 5458, 5597
5575, 5967, 5558, 5522, 5595
5576, 5457, 5597, 5584, 5557
5577, 5645, 5524, 5541, 5560
5578, 5458, 5618, 5524, 5645
5579, 5709, 6020, 5728, 5744
5580, 5571, 5545, 5934, 5449
5581, 5453, 5937, 5526, 5917
5582, 5449, 5934, 5527, 5915
5583, 5548,  321,  320, 5942
5584, 5888, 5862, 5925, 5437
5585, 5973, 5952, 5431, 5886
5586, 5529, 5574, 5878, 5546
5587, 5550,  309,  308, 5957
5588, 5414, 5568, 5550, 5957
5589, 5356, 5561, 5538, 5964
5590, 5957, 5532, 5953, 5414
5591, 5901, 5373, 5900, 5898
5592, 5943, 5355, 5959, 5345
5593,   39,   38, 5535, 5960
5594, 5949, 5948, 5536, 5562
5595,   36,   35, 5536, 5948
5596, 5431, 5950, 5537, 5947
5597, 5356, 5964, 5961, 5958
5598, 5373, 5906, 5539, 5908
5599,   33,   32, 5539, 5906
5600, 5942, 5540, 5444, 5939
5601, 5871, 5542,   28,   27
5602, 5877, 5848, 5381, 5573
5603, 5386, 5871, 5543, 5570
5604,   27,   26, 5543, 5871
5605, 5783, 5793, 5449, 5915
5606, 5885, 5546, 5878, 5438
5607, 5403, 5685, 5547, 5969
5608,   15,   14, 5547, 5685
5609, 5563, 5939, 5814, 5443
5610, 5456, 5938, 5549, 5916
5611, 5568, 5414, 5946, 5413
5612, 5552, 5647, 5587, 5975
5613, 5984, 5588, 5686, 5553
5614, 5585, 5970, 5666, 5658
5615, 5646, 5583, 5978, 5555
5616, 5586, 5556, 5399, 5598
5617, 5913, 5556, 5586, 5630
5618, 5677, 5557, 5584, 5644
5619, 5459, 5521, 5558, 5967
5620, 5438, 5888, 5528, 5885
5621, 5559, 5437, 5918, 5444
5622, 5645, 5455, 5621, 5458
5623, 5538, 5561, 5953, 5532
5624, 5373, 5901, 5533, 5906
5625, 5911, 5909, 5515, 5910
5626, 5908, 5374, 5900, 5373
5627, 5443, 5783, 5915, 5563
5628, 5564, 5513, 5517, 5919
5629, 5403, 5693, 5510, 5685
5630, 5691, 5674, 5921, 5400
5631, 5593, 5520, 5343, 5580
5632, 5970, 5585, 5664, 5593
5633, 5567, 5397, 5719, 5344
5634, 5509, 5518, 5921, 5567
5635, 5568, 5413, 5945, 5423
5636, 5569, 5525, 5937, 5453
5637, 5916, 5452, 5672, 5456
5638, 5392, 5922, 5508, 5931
5639, 5355, 5968, 5955, 5959
5640, 5595, 5522, 5523, 5597
5641, 5448, 5775, 5917, 5571
5642, 5949, 5941, 5514, 5948
5643, 5572, 5357, 5943, 5345
5644, 5573, 5516, 5542, 5877
5645, 5869, 5985, 5974, 5430
5646, 5530, 5954, 5956, 5575
5647, 5422, 5884, 5947, 5575
5648, 5579, 5459, 5967, 5595
5649, 5450, 5592, 5976, 5582
5650, 5584, 5597, 5458, 5621
5651, 5585, 5665, 5969, 5664
5652, 5554, 5666, 5970, 5404
5653, 5346, 5686, 5588, 5632
5654, 5405, 5577, 5589, 5600
5655, 5997, 5996, 5613, 5694
5656, 5399, 5581, 5591, 5598
5657, 5566, 5520, 5593, 5664
5658, 6004, 5594, 5642, 5622
5659, 5619, 5605, 5594, 6004
5660, 5978, 5596, 5996, 5979
5661, 5975, 5587, 5599, 5993
5662, 5616, 5599, 5451, 5673
5663, 5588, 5989, 5609, 5632
5664, 5416, 6007, 5638, 5656
5665, 5639, 5612, 5602, 5371
5666, 5640, 5395, 5603, 5614
5667, 5681, 5446, 5695, 5714
5668, 5655, 5994, 5641, 5440
5669, 5668, 5643, 5433, 5648
5670, 5433, 5620, 5605, 5619
5671, 5928, 5606, 5629, 5347
5672, 5583, 5363, 5596, 5978
5673, 6006, 5607, 5398, 6015
5674, 5608, 5972, 5626, 5451
5675, 6009, 5609, 5989, 5406
5676, 6017, 5624, 6008, 5610
5677, 5637, 5415, 5480, 5493
5678, 5611, 5653, 5638, 6007
5679, 5634, 5380, 5460, 5497
5680, 5596, 5676, 5613, 5996
5681, 5636, 5396, 5473, 5500
5682, 5395, 5657, 5623, 5615
5683, 5446, 5604, 5616, 5695
5684, 5635, 5439, 5482, 5491
5685, 5633, 5424, 5461, 5492
5686, 5972, 5971, 5988, 5626
5687, 6004, 6029, 6019, 5619
5688, 5615, 5623, 6015, 5398
5689, 6009, 5406, 5624, 6023
5690, 5649, 5407, 5671, 5625
5691, 5991, 5609, 6009, 5625
5692, 5663, 6002, 5988, 5455
5693, 5397, 5674, 5651, 5679
5694, 5999, 5627, 5691, 5987
5695, 5628, 5652, 6010, 6001
5696, 5982, 5983, 5658, 5402
5697, 5454, 5677, 5644, 5971
5698, 5347, 5632, 5609, 5991
5699, 5425, 5659, 5638, 5653
5700, 5745, 5998, 5730, 5380
5701, 5390, 5661, 5640, 5654
5702, 5604, 5446, 5641, 5994
5703, 5655, 5440, 5642, 5439
5704, 5622, 5642, 5440, 5721
5705, 5620, 5433, 5643, 5670
5706, 5644, 5584, 5621, 5455
5707, 5455, 5645, 5560, 5663
5708, 6019, 5648, 5433, 5619
5709, 5451, 5626, 6003, 5650
5710, 5692, 6018, 6010, 5652
5711, 5688, 5391, 5474, 5499
5712, 6031, 5417, 5678, 5649
5713, 5661, 5657, 5395, 5640
5714, 5700, 5659, 5425, 5995
5715, 5660, 5699, 5683, 5379
5716, 5639, 5660, 5379, 5998
5717, 6042, 5696, 5747, 5737
5718, 5693, 5401, 5987, 5565
5719, 5403, 5969, 5665, 5986
5720, 6034, 5667, 5721, 5441
5721, 6029, 5667, 5648, 6019
5722, 5995, 5643, 5668, 5687
5723, 5707, 5669, 5688, 5385
5724, 5706, 5669, 5707, 5739
5725, 5670, 5643, 5995, 5425
5726, 5348, 5689, 5671, 5735
5727, 5672, 5452, 6013, 6012
5728, 5673, 5714, 5695, 5616
5729, 5348, 5743, 5675, 5689
5730, 6018, 5715, 5680, 5694
5731, 5613, 5676, 6018, 5694
5732, 5649, 5678, 5705, 5407
5733, 5371, 5997, 5694, 5680
5734, 5378, 5711, 5699, 5370
5735, 5697, 5706, 5739, 5724
5736, 5768, 5733, 5394, 5701
5737, 5732, 5702, 5684, 5769
5738, 5347, 5991, 5689, 5928
5739, 6020, 5709, 6016, 5690
5740, 5565, 5987, 5691, 5400
5741, 5673, 5690, 6016, 5714
5742, 5447, 5696, 5681, 5714
5743, 5729, 5724, 5739, 5384
5744, 5697, 5724, 6025, 5720
5745, 5723, 5698, 5711, 5725
5746, 5698, 5723, 5710, 6005
5747, 6053, 5378, 5370, 6033
5748, 5394, 5657, 5661, 5701
5749, 5702, 5417, 5656, 5659
5750, 5442, 5731, 5722, 5750
5751, 6035, 5703, 5713, 5434
5752, 5397, 5679, 5704, 5719
5753, 5705, 5734, 5718, 5407
5754, 5390, 5654, 5706, 5697
5755, 5384, 5746, 5710, 5729
5756, 5361, 5742, 5727, 5762
5757, 6032, 6039, 6033, 5715
5758, 5453, 5744, 5728, 5569
5759, 5447, 5714, 6016, 5709
5760, 5764, 5730, 5746, 5980
5761, 5426, 5687, 5712, 5738
5762, 5435, 5748, 5713, 5731
5763, 5680, 5715, 6033, 5370
5764, 6032, 5692, 5708, 5914
5765, 5809, 5418, 5772, 5796
5766, 5919, 5736, 5771, 5564
5767, 6028, 5735, 5718, 5408
5768, 5721, 5667, 6029, 5622
5769, 5731, 5442, 5782, 5435
5770, 5383, 6036, 6024, 5723
5771, 5723, 6024, 5729, 5710
5772, 5389, 5726, 5741, 5768
5773, 6049, 5759, 5725, 5740
5774, 5741, 5761, 5388, 5754
5775, 5720, 6025, 5726, 5389
5776, 5742, 5361, 5791, 6037
5777, 5744, 5453, 5917, 5775
5778, 6005, 5730, 5998, 5379
5779, 5738, 5755, 5769, 5426
5780, 5755, 5749, 5732, 5769
5781, 5768, 5741, 5754, 5733
5782, 5718, 5734, 5785, 5408
5783, 5735, 6028, 5753, 5348
5784, 5719, 5736, 5919, 5344
5785, 5747, 5751, 5752, 5750
5786, 5737, 5747, 5750, 5722
5787, 5427, 5758, 5755, 5738
5788, 5789, 5800, 6049, 5377
5789, 5754, 5388, 5757, 5393
5790, 5369, 5779, 5914, 6037
5791, 5348, 5753, 5765, 5743
5792, 5775, 5448, 5751, 5447
5793, 5746, 5384, 5927, 5980
5794, 5753, 6028, 5756, 5349
5795, 5747, 5696, 5447, 5751
5796, 5749, 5755, 5758, 5418
5797, 6043, 5749, 5418, 5734
5798, 5752, 5751, 5448, 5793
5799, 5767, 5783, 5443, 5792
5800, 5442, 5750, 5752, 5767
5801, 5349, 5762, 5765, 5753
5802, 5784, 5770, 5801, 5409
5803, 5771, 5786, 5392, 5564
5804, 6050, 5787, 5828, 5820
5805, 5382, 5761, 5773, 6045
5806, 5778, 5740, 5760, 5779
5807, 5779, 5760, 6053, 6039
5808, 5773, 5726, 6036, 6044
5809, 5766, 5762, 5349, 5803
5810, 5788, 5777, 6038, 5763
5811, 5427, 5748, 5763, 6038
5812, 5774, 5385, 5475, 5498
5813, 5361, 5762, 5766, 5781
5814, 5892, 5784, 5409, 5821
5815, 6045, 5773, 6044, 6051
5816, 5782, 5795, 5776, 5435
5817, 5777, 5788, 5428, 5787
5818, 5778, 5779, 5369, 5780
5819, 5740, 5778, 5377, 6049
5820, 5377, 5778, 5780, 6055
5821, 5803, 5805, 6052, 5350
5822, 5756, 5770, 5784, 5805
5823, 5770, 5408, 5785, 5801
5824, 5785, 5734, 5418, 5809
5825, 5570, 5922, 5992, 5387
5826, 5772, 6040, 6041, 6050
5827, 5436, 6011, 5776, 5795
5828, 5436, 5819, 5920, 6011
5829, 5789, 5811, 5816, 5800
5830, 5826, 5790, 5350, 6057
5831, 5806, 5791, 5802, 5368
5832, 5369, 6037, 5791, 5806
5833, 5797, 5792, 5443, 5814
5834, 5793, 5448, 5571, 5449
5835, 5808, 5388, 5761, 5382
5836, 5387, 5992, 5794, 6021
5837, 5801, 5796, 5804, 5409
5838, 5436, 5795, 5797, 5812
5839, 6047, 5824, 5816, 5811
5840, 5824, 5798, 5823, 5816
5841, 5780, 5369, 5806, 5810
5842, 5810, 6054, 5833, 5799
5843, 5816, 6045, 6051, 5800
5844, 5804, 5822, 5815, 5409
5845, 6052, 5805, 5784, 5892
5846, 5851, 5827, 5818, 5835
5847, 5802, 5807, 5834, 5368
5848, 5808, 5382, 5823, 5798
5849, 5810, 5799, 6055, 5780
5850, 5811, 5376, 5817, 6047
5851, 5819, 5847, 5840, 5920
5852, 5815, 5822, 5846, 5410
5853, 5918, 5814, 5939, 5444
5854, 5873, 5410, 6046, 5870
5855, 6045, 5816, 5823, 5382
5856, 5817, 5376, 5833, 5825
5857, 6026, 5840, 5429, 5830
5858, 5830, 5820, 5828, 6026
5859, 5880, 5873, 5863, 5351
5860, 5880, 5892, 5821, 5873
5861, 5420, 5822, 5813, 5829
5862, 6030, 5846, 5822, 5420
5863, 5836, 6021, 5798, 5824
5864, 5828, 5787, 5428, 6026
5865, 5830, 5429, 5831, 5829
5866, 5428, 5920, 5840, 6026
5867, 5829, 5831, 6027, 5420
5868, 5831, 5853, 5845, 6027
5869, 5839, 5836, 5824, 6047
5870, 5834, 5842, 6054, 5368
5871, 5833, 6054, 5842, 5825
5872, 6058, 5835, 6057, 5351
5873, 5387, 6021, 5836, 5854
5874, 5892, 5880, 5350, 6052
5875, 5850, 5881, 5359, 5844
5876, 5835, 6058, 5837, 5851
5877, 5839, 5832, 5381, 5848
5878, 5847, 5819, 5925, 5862
5879, 5841, 5367, 5843, 6048
5880, 5375, 5825, 5842, 5841
5881, 5834, 5367, 5841, 5842
5882, 5864, 5366, 5868, 5843
5883, 5844, 5861, 5851, 5837
5884, 5430, 5990, 5845, 5853
5885, 5856, 6046, 5852, 5857
5886, 5429, 5840, 5847, 5855
5887, 5848, 5877, 5386, 5854
5888, 5858, 5849, 5867, 5872
5889, 5897, 5881, 5850, 5860
5890, 5851, 5861, 5864, 6056
5891, 5430, 5853, 5855, 5869
5892, 5863, 5873, 5870, 5879
5893, 5422, 5875, 5866, 5884
5894, 5856, 5857, 5889, 5411
5895, 5381, 5832, 5858, 5872
5896, 5366, 5864, 5861, 5865
5897, 5888, 5437, 5559, 5528
5898, 5869, 5862, 5888, 5438
5899, 6056, 5864, 5843, 5367
5900, 5865, 5359, 5874, 5882
5901, 5876, 5421, 5845, 5990
5902, 5924, 5875, 5422, 5935
5903, 5872, 5867, 5909, 5911
5904, 5859, 5843, 5868, 5893
5905, 5438, 5878, 5985, 5869
5906, 5870, 6046, 5856, 5411
5907, 5889, 5412, 5883, 5411
5908, 6057, 5350, 5880, 5351
5909, 5890, 5894, 5352, 5897
5910, 5891, 5352, 5894, 5895
5911, 5896, 5883, 5412, 5912
5912, 5884, 5886, 5431, 5947
5913, 5952, 5973, 5974, 5574
5914, 5893, 5887, 5898, 5900
5915, 5889, 5875, 5924, 5412
5916, 5352, 5891, 5881, 5897
5917, 5358, 5874, 5891, 5895
5918, 5893, 5900, 5374, 5859
5919, 5894, 5890, 5896, 5353
5920, 5895, 5894, 5353, 5903
5921, 5365, 5562, 5901, 5898
5922, 5902, 5905, 5907, 6022
5923, 5903, 5353, 5904, 5923
5924, 5926, 5353, 5896, 5912
5925, 5907, 5905, 5941, 5949
5926, 5940, 5926, 5912, 5929
5927, 6022, 5907, 5365, 5882
5928, 5912, 5412, 5924, 5929
5929, 5812, 5918, 5437, 5925
5930, 5920, 5428, 5788, 6011
5931, 5926, 5940, 5930, 5354
5932, 5707, 5385, 5980, 5927
5933, 5928, 5628, 6001, 5606
5934, 5946, 5951, 5944, 5930
5935, 5355, 5943, 5936, 5944
5936, 5413, 5940, 5929, 5945
5937, 5946, 5414, 5953, 5951
5938, 5950, 5431, 5952, 5529
5939, 5355, 5944, 5951, 5968
5940, 5356, 5955, 5968, 5561
5941, 5965, 5963, 5520, 5566
5942, 5511, 5966, 5343, 5576
5943, 5631, 5454, 5971, 5972
5944, 5990, 5973, 5886, 5876
5945, 5974, 5973, 5990, 5430
5946, 5445, 5582, 5976, 5977
5947, 5976, 5592, 5993, 5604
5948, 5364, 5555, 5978, 5979
5949, 5999, 6000, 5982, 5630
5950, 5401, 5983, 5982, 6000
5951, 5983, 5401, 5986, 5665
5952, 5984, 5553, 5405, 5600
5953, 6008, 5989, 5600, 5589
5954, 5590, 5979, 5996, 5997
5955, 5627, 5999, 5607, 6006
5956, 6000, 5999, 5987, 5401
5957, 5626, 5988, 6002, 6003
5958, 5993, 5599, 5616, 5604
5959, 6007, 5416, 6017, 5610
5960, 5406, 5989, 6008, 5624
5961, 6003, 6012, 6013, 5650
5962, 6020, 6013, 5452, 5728
5963, 6015, 5623, 6014, 6006
5964, 6031, 5416, 5656, 5417
5965, 5715, 6018, 5692, 6032
5966, 5724, 5729, 6024, 6025
5967, 6025, 6024, 6036, 5726
5968, 6027, 5838, 6030, 5420
5969, 6034, 5703, 6035, 5667
5970, 6044, 6036, 5383, 5759
5971, 5758, 5427, 6038, 6040
5972, 6039, 6032, 5914, 5779
5973, 6031, 5624, 6017, 5416
5974, 6041, 5777, 5787, 6050
5975, 6022, 5882, 5874, 5358
5976, 6046, 5410, 5846, 5852
5977, 6051, 6044, 5759, 6049
5978, 6056, 5367, 5827, 5851
*Element, type=S3R
1297, 2237, 2205, 2202
1298, 2303, 1903, 2265
1299, 2020,  267,  268
1300, 2104, 2055, 2445
1301, 2429, 2081, 2107
1302, 2490, 2471, 2164
1303, 2141, 2136, 2116
1304, 2425, 2143, 2042
1305, 2170, 2082, 2153
1306, 2214, 2155, 1864
1307, 2175, 1841, 2082
1308, 2190, 2168, 1868
1309, 2181, 2178, 1861
1310, 2507, 2246, 1880
1311, 2242, 2230, 1858
1312, 2500, 2268, 2250
1313, 2330, 2318, 2307
1314, 2456, 2294, 2308
1315, 2493, 2321, 1913
1316, 2380, 1906, 2335
1317, 2124, 2435, 2025
1318, 2440, 1855, 2143
1319, 2469, 2126, 2096
1320, 2478, 1863, 2479
1321, 2266, 2505, 1891
2069, 2862, 2848, 2542
2070, 2899, 2883, 2561
2071, 3004, 2974, 2995
2072,  388,    7,  269
2073, 2777, 2539, 2755
2074, 2830, 2566, 2887
2075, 3140, 2777, 2800
2076, 3145, 2778, 2801
2077, 2820, 2546, 2798
2078, 3186, 2926, 2559
2079, 3209, 2924, 2915
2080, 2915, 2576, 2883
2081, 2959, 2950, 2919
2082, 3176, 2922, 2898
2083, 2960, 2924, 2575
2084, 2998, 2595, 2950
2085, 3001, 2987, 2996
2086, 3220, 2985, 2994
2087, 3008, 3055, 2604
2088, 3068, 3038, 3042
2089, 3138, 2535, 2728
2090, 2999, 3160, 3002
2091, 2817, 3162, 2793
2092, 2868, 3170, 2825
2093, 2844, 2569, 2871
2094, 3184, 3063, 3066
2095, 3198, 3056, 3065
2854, 3487, 3245, 3468
2855, 3612, 3596, 3244
2856, 3404,  437,  438
2857, 3831, 3518, 3440
2858, 3566, 3551, 3532
2859, 3897, 3576, 3557
2860, 3601, 3588, 3881
2861, 3666, 3252, 3916
2862, 3664, 3639, 3630
2863, 3604, 3637, 3301
2864, 3656, 3677, 3629
2865, 3681, 3260, 3670
2866, 3713, 3265, 3687
2867, 3774, 3775, 3749
2868, 3787, 3249, 3248
2869, 3837, 3488, 3508
2870, 3844, 3487, 3507
2871, 3848, 3286, 3518
2872, 3465, 3851, 3505
2873, 3733, 3722, 3737
2874, 3888, 3876, 3722
2875, 3799, 3787, 3866
2876, 3537, 3480, 3333
2877, 3627, 3591, 3892
2878, 3907, 3729, 3927
2879, 3550, 3272, 3569
2880, 3691, 3918, 3670
2881, 3932, 3634, 3636
2882, 3688, 3677, 3682
3639, 4254, 4234, 4211
3640, 4280, 4265, 3970
3641, 4195, 3946, 4174
3642, 4326, 4311, 4008
3643, 4141,  487,  488
3644, 4251, 4567, 4173
3645, 4574, 4562, 4176
3646, 4214, 4198, 4045
3647, 4242, 4213, 4597
3648, 4590, 4000, 4197
3649, 4556, 4195, 4217
3650, 4566, 4569, 4244
3651, 4307, 4306, 3963
3652, 4615, 4359, 4612
3653, 4614, 4392, 4382
3654, 4417, 4403, 4412
3655, 4618, 4473, 4481
3656, 4604, 4479, 4482
3657, 4484, 4454, 4458
3658, 4495, 4015, 4381
3659, 4553, 4049, 4112
3660, 4561, 4196, 4218
3661, 4415, 4581, 4418
3662, 4587, 4275, 3999
3663, 4629, 4302, 4318
4415, 5092, 4664, 5069
4416, 5340, 5342, 5054
4417, 4902, 4658, 4883
4418, 4777,  537,  538
4419, 4953, 4892, 4746
4420, 5247, 4900, 4920
4421, 4929, 4948, 4691
4422, 4977, 4737, 4962
4423, 5044, 5339, 5070
4424, 5090, 4679, 5077
4425, 5104, 5093, 5070
4426, 5318, 5106, 4655
4427, 5129, 4684, 4866
4428, 5317, 5124, 5132
4429, 5249, 5179, 4718
4430, 5211, 5210, 5195
4431, 5254, 4902, 4922
4432, 4882, 5262, 4921
4433, 5314, 4666, 4978
4434, 5124, 5326, 5152
4435, 4997, 5341, 5031
5192, 5375, 5841, 6048
5193, 5822, 5804, 5813
5194, 6049, 5800, 6051
5195, 5544,  587,  588
5196, 5952, 5574, 5529
5197, 5676, 5596, 5363
5198, 5972, 5608, 5631
5199, 5659, 5656, 5638
5200, 6002, 6012, 6003
5201, 5679, 5623, 5657
5202, 5768, 5701, 5682
5203, 5748, 5712, 5713
5204, 6039, 6053, 6033
5205, 5975, 5993, 5592
5206, 6029, 6004, 5622
5207, 6018, 5676, 6010
5208, 5446, 5681, 5641
5209, 6042, 5441, 5662
5210, 5817, 5825, 5832
5211, 5821, 5409, 5815
5212, 5799, 5833, 5376
*Nset, nset=all, generate
    1,  6058,     1
*Elset, elset=all, generate
    1,  5978,     1
*Orientation, name=Ori-1
1., 0., 0., 0., 1., 0.
3, 45.
** Section: Section-1-ALL
*Shell Section, elset=all, material=H1, orientation=Ori-1
0.53, 5
*Transverse Shear Stiffness
5600., 5600., 4200.
*End Instance
**  
*Nset, nset=BottomFix, instance=BiasExtension-1
   5,   6, 219, 220, 221, 222, 223, 224, 225, 226, 227, 228, 229, 230, 231, 232
 233, 234, 235, 236, 237, 238, 239, 240, 241, 242, 243, 244, 245, 246, 247, 248
 249, 250, 251, 252, 253, 254, 255, 256, 257, 258, 259, 260, 261, 262, 263, 264
 265, 266, 267, 268
*Elset, elset=BottomFix, instance=BiasExtension-1
 1299, 1330, 1331, 1338, 1339, 1344, 1423, 1424, 1425, 1426, 1427, 1428, 1429, 1430, 1431, 1432
 1433, 1434, 1435, 1436, 1437, 1438, 1439, 1440, 1441, 1442, 1443, 1595, 1607, 1608, 1609, 1610
 1611, 1612, 1613, 1614, 1616, 1621, 1622, 1625, 1629, 1630, 1633, 1637, 1639, 1641, 1642, 1647
 1649, 1650, 1659
*Nset, nset=angle, instance=BiasExtension-1
  538,  539, 2405
*Nset, nset=topMove, instance=BiasExtension-1
   7,   8, 339, 340, 341, 342, 343, 344, 345, 346, 347, 348, 349, 350, 351, 352
 353, 354, 355, 356, 357, 358, 359, 360, 361, 362, 363, 364, 365, 366, 367, 368
 369, 370, 371, 372, 373, 374, 375, 376, 377, 378, 379, 380, 381, 382, 383, 384
 385, 386, 387, 388
*Elset, elset=topMove, instance=BiasExtension-1
 2072, 2096, 2098, 2105, 2106, 2113, 2114, 2119, 2120, 2200, 2201, 2202, 2203, 2204, 2205, 2206
 2207, 2208, 2209, 2210, 2211, 2212, 2213, 2214, 2215, 2216, 2217, 2218, 2219, 2220, 2221, 2389
 2398, 2403, 2407, 2411, 2412, 2413, 2415, 2417, 2418, 2421, 2423, 2424, 2426, 2427, 2428, 2433
 2435, 2436, 2439
*End Assembly
*Amplitude, name=Amp-1
             0.,              0.,              1.,              1.
** 
** MATERIALS
** 
*Material, name=GAP
*Density
 1.33e-09,
*Depvar
     40,
*User Defined Field
*User Material, constants=20
 21217.8,        1000.,          0.1, -2.30462e+06,  2.01194e+06,     -708418.,      128656.,     -12809.7
       696.12,          85.,          0.5,        7500.,          0.2,        3800.,         0.39,        0.004
      17296.1,         625.,          0.1,        0.004
*Material, name=H1
*Density
 4.21e-09,
*Depvar
     40,
*User Defined Field
*User Material, constants=20
 43.88,     100.,      0.1, -3.93015,  17.3597, -27.3318,  16.0981, -1.38771
   3.4378,      85.,      0.5,       5.,      0.2,    3800.,     0.39,    0.006
    43.88,     100.,      0.1,    0.006
** ----------------------------------------------------------------
** 
** STEP: Step-1
** 
*Step, name=Step-1, nlgeom=YES
*Dynamic, Explicit
, 1.
*Bulk Viscosity
0.06, 1.2
** 
** BOUNDARY CONDITIONS
** 
** Name: BC-1 Type: Symmetry/Antisymmetry/Encastre
*Boundary
BottomFix, ENCASTRE
** Name: BC-2 Type: Displacement/Rotation
*Boundary, amplitude=Amp-1
topMove, 1, 1
topMove, 2, 2, 20.
topMove, 3, 3
topMove, 4, 4
topMove, 5, 5
topMove, 6, 6
** 
** OUTPUT REQUESTS
** 
*Restart, write, number interval=1, time marks=NO
** 
** FIELD OUTPUT: F-Output-1
** 
*Output, field, number interval=100
*Node Output
A, COORD, RF, U, V
*Element Output, directions=YES
EVF, LE, PE, PEEQ, PEEQVAVG, PEVAVG, S, SDV, SVAVG
*Contact Output
CSTRESS, 
** 
** HISTORY OUTPUT: H-Output-1
** 
*Output, history, variable=PRESELECT
*End Step
