*Heading
** Job name: BiasH3-75_STIFF Model name: EmbroideryBiasExtensionH3
** Generated by: Abaqus/CAE 2022
*Preprint, echo=NO, model=NO, history=NO, contact=NO
**
** PARTS
**
*Part, name=BiasExtension
*End Part
**  
**
** ASSEMBLY
**
*Assembly, name=Assembly
**  
*Instance, name=BiasExtension-1, part=BiasExtension
*Node
      1,           0.,           0.,           0.
      2,  0.498235285,           0.,           0.
      3,  0.996470571,           0.,           0.
      4,   1.49470592,           0.,           0.
      5,   1.99294114,           0.,           0.
      6,   2.49117637,           0.,           0.
      7,   2.98941183,           0.,           0.
      8,   3.48764706,           0.,           0.
      9,   3.98588228,           0.,           0.
     10,   4.48411751,           0.,           0.
     11,   4.98235273,           0.,           0.
     12,   5.48058844,           0.,           0.
     13,   5.97882366,           0.,           0.
     14,   6.47705889,           0.,           0.
     15,   6.97529411,           0.,           0.
     16,   7.47352934,           0.,           0.
     17,   7.97176456,           0.,           0.
     18,   8.47000027,           0.,           0.
     19,   8.96823502,           0.,           0.
     20,   9.46647072,           0.,           0.
     21,   9.96470547,           0.,           0.
     22,   10.4629412,           0.,           0.
     23,   10.9611769,           0.,           0.
     24,   11.4594116,           0.,           0.
     25,   11.9576473,           0.,           0.
     26,   12.4558821,           0.,           0.
     27,   12.9541178,           0.,           0.
     28,   13.4523525,           0.,           0.
     29,   13.9505882,           0.,           0.
     30,   14.4488239,           0.,           0.
     31,   14.9470587,           0.,           0.
     32,   15.4452944,           0.,           0.
     33,   15.9435291,           0.,           0.
     34,   16.4417648,           0.,           0.
     35,   16.9400005,           0.,           0.
     36,   17.4382362,           0.,           0.
     37,     17.93647,           0.,           0.
     38,   18.4347057,           0.,           0.
     39,   18.9329414,           0.,           0.
     40,   19.4311771,           0.,           0.
     41,   19.9294109,           0.,           0.
     42,   20.4276466,           0.,           0.
     43,   20.9258823,           0.,           0.
     44,    21.424118,           0.,           0.
     45,   21.9223537,           0.,           0.
     46,   22.4205875,           0.,           0.
     47,   22.9188232,           0.,           0.
     48,   23.4170589,           0.,           0.
     49,   23.9152946,           0.,           0.
     50,   24.4135303,           0.,           0.
     51,   24.9117641,           0.,           0.
     52,   25.4099998,           0.,           0.
     53,           0.,  0.498235285,           0.
     54,  0.498235285,  0.498235285,           0.
     55,  0.996470571,  0.498235285,           0.
     56,   1.49470592,  0.498235285,           0.
     57,   1.99294114,  0.498235285,           0.
     58,   2.49117637,  0.498235285,           0.
     59,   2.98941183,  0.498235285,           0.
     60,   3.48764706,  0.498235285,           0.
     61,   3.98588228,  0.498235285,           0.
     62,   4.48411751,  0.498235285,           0.
     63,   4.98235273,  0.498235285,           0.
     64,   5.48058844,  0.498235285,           0.
     65,   5.97882366,  0.498235285,           0.
     66,   6.47705889,  0.498235285,           0.
     67,   6.97529411,  0.498235285,           0.
     68,   7.47352934,  0.498235285,           0.
     69,   7.97176456,  0.498235285,           0.
     70,   8.47000027,  0.498235285,           0.
     71,   8.96823502,  0.498235285,           0.
     72,   9.46647072,  0.498235285,           0.
     73,   9.96470547,  0.498235285,           0.
     74,   10.4629412,  0.498235285,           0.
     75,   10.9611769,  0.498235285,           0.
     76,   11.4594116,  0.498235285,           0.
     77,   11.9576473,  0.498235285,           0.
     78,   12.4558821,  0.498235285,           0.
     79,   12.9541178,  0.498235285,           0.
     80,   13.4523525,  0.498235285,           0.
     81,   13.9505882,  0.498235285,           0.
     82,   14.4488239,  0.498235285,           0.
     83,   14.9470587,  0.498235285,           0.
     84,   15.4452944,  0.498235285,           0.
     85,   15.9435291,  0.498235285,           0.
     86,   16.4417648,  0.498235285,           0.
     87,   16.9400005,  0.498235285,           0.
     88,   17.4382362,  0.498235285,           0.
     89,     17.93647,  0.498235285,           0.
     90,   18.4347057,  0.498235285,           0.
     91,   18.9329414,  0.498235285,           0.
     92,   19.4311771,  0.498235285,           0.
     93,   19.9294109,  0.498235285,           0.
     94,   20.4276466,  0.498235285,           0.
     95,   20.9258823,  0.498235285,           0.
     96,    21.424118,  0.498235285,           0.
     97,   21.9223537,  0.498235285,           0.
     98,   22.4205875,  0.498235285,           0.
     99,   22.9188232,  0.498235285,           0.
    100,   23.4170589,  0.498235285,           0.
    101,   23.9152946,  0.498235285,           0.
    102,   24.4135303,  0.498235285,           0.
    103,   24.9117641,  0.498235285,           0.
    104,   25.4099998,  0.498235285,           0.
    105,           0.,  0.996470571,           0.
    106,  0.498235285,  0.996470571,           0.
    107,  0.996470571,  0.996470571,           0.
    108,   1.49470592,  0.996470571,           0.
    109,   1.99294114,  0.996470571,           0.
    110,   2.49117637,  0.996470571,           0.
    111,   2.98941183,  0.996470571,           0.
    112,   3.48764706,  0.996470571,           0.
    113,   3.98588228,  0.996470571,           0.
    114,   4.48411751,  0.996470571,           0.
    115,   4.98235273,  0.996470571,           0.
    116,   5.48058844,  0.996470571,           0.
    117,   5.97882366,  0.996470571,           0.
    118,   6.47705889,  0.996470571,           0.
    119,   6.97529411,  0.996470571,           0.
    120,   7.47352934,  0.996470571,           0.
    121,   7.97176456,  0.996470571,           0.
    122,   8.47000027,  0.996470571,           0.
    123,   8.96823502,  0.996470571,           0.
    124,   9.46647072,  0.996470571,           0.
    125,   9.96470547,  0.996470571,           0.
    126,   10.4629412,  0.996470571,           0.
    127,   10.9611769,  0.996470571,           0.
    128,   11.4594116,  0.996470571,           0.
    129,   11.9576473,  0.996470571,           0.
    130,   12.4558821,  0.996470571,           0.
    131,   12.9541178,  0.996470571,           0.
    132,   13.4523525,  0.996470571,           0.
    133,   13.9505882,  0.996470571,           0.
    134,   14.4488239,  0.996470571,           0.
    135,   14.9470587,  0.996470571,           0.
    136,   15.4452944,  0.996470571,           0.
    137,   15.9435291,  0.996470571,           0.
    138,   16.4417648,  0.996470571,           0.
    139,   16.9400005,  0.996470571,           0.
    140,   17.4382362,  0.996470571,           0.
    141,     17.93647,  0.996470571,           0.
    142,   18.4347057,  0.996470571,           0.
    143,   18.9329414,  0.996470571,           0.
    144,   19.4311771,  0.996470571,           0.
    145,   19.9294109,  0.996470571,           0.
    146,   20.4276466,  0.996470571,           0.
    147,   20.9258823,  0.996470571,           0.
    148,    21.424118,  0.996470571,           0.
    149,   21.9223537,  0.996470571,           0.
    150,   22.4205875,  0.996470571,           0.
    151,   22.9188232,  0.996470571,           0.
    152,   23.4170589,  0.996470571,           0.
    153,   23.9152946,  0.996470571,           0.
    154,   24.4135303,  0.996470571,           0.
    155,   24.9117641,  0.996470571,           0.
    156,   25.4099998,  0.996470571,           0.
    157,           0.,   1.49470592,           0.
    158,  0.498235285,   1.49470592,           0.
    159,  0.996470571,   1.49470592,           0.
    160,   1.49470592,   1.49470592,           0.
    161,   1.99294114,   1.49470592,           0.
    162,   2.49117637,   1.49470592,           0.
    163,   2.98941183,   1.49470592,           0.
    164,   3.48764706,   1.49470592,           0.
    165,   3.98588228,   1.49470592,           0.
    166,   4.48411751,   1.49470592,           0.
    167,   4.98235273,   1.49470592,           0.
    168,   5.48058844,   1.49470592,           0.
    169,   5.97882366,   1.49470592,           0.
    170,   6.47705889,   1.49470592,           0.
    171,   6.97529411,   1.49470592,           0.
    172,   7.47352934,   1.49470592,           0.
    173,   7.97176456,   1.49470592,           0.
    174,   8.47000027,   1.49470592,           0.
    175,   8.96823502,   1.49470592,           0.
    176,   9.46647072,   1.49470592,           0.
    177,   9.96470547,   1.49470592,           0.
    178,   10.4629412,   1.49470592,           0.
    179,   10.9611769,   1.49470592,           0.
    180,   11.4594116,   1.49470592,           0.
    181,   11.9576473,   1.49470592,           0.
    182,   12.4558821,   1.49470592,           0.
    183,   12.9541178,   1.49470592,           0.
    184,   13.4523525,   1.49470592,           0.
    185,   13.9505882,   1.49470592,           0.
    186,   14.4488239,   1.49470592,           0.
    187,   14.9470587,   1.49470592,           0.
    188,   15.4452944,   1.49470592,           0.
    189,   15.9435291,   1.49470592,           0.
    190,   16.4417648,   1.49470592,           0.
    191,   16.9400005,   1.49470592,           0.
    192,   17.4382362,   1.49470592,           0.
    193,     17.93647,   1.49470592,           0.
    194,   18.4347057,   1.49470592,           0.
    195,   18.9329414,   1.49470592,           0.
    196,   19.4311771,   1.49470592,           0.
    197,   19.9294109,   1.49470592,           0.
    198,   20.4276466,   1.49470592,           0.
    199,   20.9258823,   1.49470592,           0.
    200,    21.424118,   1.49470592,           0.
    201,   21.9223537,   1.49470592,           0.
    202,   22.4205875,   1.49470592,           0.
    203,   22.9188232,   1.49470592,           0.
    204,   23.4170589,   1.49470592,           0.
    205,   23.9152946,   1.49470592,           0.
    206,   24.4135303,   1.49470592,           0.
    207,   24.9117641,   1.49470592,           0.
    208,   25.4099998,   1.49470592,           0.
    209,           0.,   1.99294114,           0.
    210,  0.498235285,   1.99294114,           0.
    211,  0.996470571,   1.99294114,           0.
    212,   1.49470592,   1.99294114,           0.
    213,   1.99294114,   1.99294114,           0.
    214,   2.49117637,   1.99294114,           0.
    215,   2.98941183,   1.99294114,           0.
    216,   3.48764706,   1.99294114,           0.
    217,   3.98588228,   1.99294114,           0.
    218,   4.48411751,   1.99294114,           0.
    219,   4.98235273,   1.99294114,           0.
    220,   5.48058844,   1.99294114,           0.
    221,   5.97882366,   1.99294114,           0.
    222,   6.47705889,   1.99294114,           0.
    223,   6.97529411,   1.99294114,           0.
    224,   7.47352934,   1.99294114,           0.
    225,   7.97176456,   1.99294114,           0.
    226,   8.47000027,   1.99294114,           0.
    227,   8.96823502,   1.99294114,           0.
    228,   9.46647072,   1.99294114,           0.
    229,   9.96470547,   1.99294114,           0.
    230,   10.4629412,   1.99294114,           0.
    231,   10.9611769,   1.99294114,           0.
    232,   11.4594116,   1.99294114,           0.
    233,   11.9576473,   1.99294114,           0.
    234,   12.4558821,   1.99294114,           0.
    235,   12.9541178,   1.99294114,           0.
    236,   13.4523525,   1.99294114,           0.
    237,   13.9505882,   1.99294114,           0.
    238,   14.4488239,   1.99294114,           0.
    239,   14.9470587,   1.99294114,           0.
    240,   15.4452944,   1.99294114,           0.
    241,   15.9435291,   1.99294114,           0.
    242,   16.4417648,   1.99294114,           0.
    243,   16.9400005,   1.99294114,           0.
    244,   17.4382362,   1.99294114,           0.
    245,     17.93647,   1.99294114,           0.
    246,   18.4347057,   1.99294114,           0.
    247,   18.9329414,   1.99294114,           0.
    248,   19.4311771,   1.99294114,           0.
    249,   19.9294109,   1.99294114,           0.
    250,   20.4276466,   1.99294114,           0.
    251,   20.9258823,   1.99294114,           0.
    252,    21.424118,   1.99294114,           0.
    253,   21.9223537,   1.99294114,           0.
    254,   22.4205875,   1.99294114,           0.
    255,   22.9188232,   1.99294114,           0.
    256,   23.4170589,   1.99294114,           0.
    257,   23.9152946,   1.99294114,           0.
    258,   24.4135303,   1.99294114,           0.
    259,   24.9117641,   1.99294114,           0.
    260,   25.4099998,   1.99294114,           0.
    261,           0.,   2.49117637,           0.
    262,  0.498235285,   2.49117637,           0.
    263,  0.996470571,   2.49117637,           0.
    264,   1.49470592,   2.49117637,           0.
    265,   1.99294114,   2.49117637,           0.
    266,   2.49117637,   2.49117637,           0.
    267,   2.98941183,   2.49117637,           0.
    268,   3.48764706,   2.49117637,           0.
    269,   3.98588228,   2.49117637,           0.
    270,   4.48411751,   2.49117637,           0.
    271,   4.98235273,   2.49117637,           0.
    272,   5.48058844,   2.49117637,           0.
    273,   5.97882366,   2.49117637,           0.
    274,   6.47705889,   2.49117637,           0.
    275,   6.97529411,   2.49117637,           0.
    276,   7.47352934,   2.49117637,           0.
    277,   7.97176456,   2.49117637,           0.
    278,   8.47000027,   2.49117637,           0.
    279,   8.96823502,   2.49117637,           0.
    280,   9.46647072,   2.49117637,           0.
    281,   9.96470547,   2.49117637,           0.
    282,   10.4629412,   2.49117637,           0.
    283,   10.9611769,   2.49117637,           0.
    284,   11.4594116,   2.49117637,           0.
    285,   11.9576473,   2.49117637,           0.
    286,   12.4558821,   2.49117637,           0.
    287,   12.9541178,   2.49117637,           0.
    288,   13.4523525,   2.49117637,           0.
    289,   13.9505882,   2.49117637,           0.
    290,   14.4488239,   2.49117637,           0.
    291,   14.9470587,   2.49117637,           0.
    292,   15.4452944,   2.49117637,           0.
    293,   15.9435291,   2.49117637,           0.
    294,   16.4417648,   2.49117637,           0.
    295,   16.9400005,   2.49117637,           0.
    296,   17.4382362,   2.49117637,           0.
    297,     17.93647,   2.49117637,           0.
    298,   18.4347057,   2.49117637,           0.
    299,   18.9329414,   2.49117637,           0.
    300,   19.4311771,   2.49117637,           0.
    301,   19.9294109,   2.49117637,           0.
    302,   20.4276466,   2.49117637,           0.
    303,   20.9258823,   2.49117637,           0.
    304,    21.424118,   2.49117637,           0.
    305,   21.9223537,   2.49117637,           0.
    306,   22.4205875,   2.49117637,           0.
    307,   22.9188232,   2.49117637,           0.
    308,   23.4170589,   2.49117637,           0.
    309,   23.9152946,   2.49117637,           0.
    310,   24.4135303,   2.49117637,           0.
    311,   24.9117641,   2.49117637,           0.
    312,   25.4099998,   2.49117637,           0.
    313,           0.,   2.98941183,           0.
    314,  0.498235285,   2.98941183,           0.
    315,  0.996470571,   2.98941183,           0.
    316,   1.49470592,   2.98941183,           0.
    317,   1.99294114,   2.98941183,           0.
    318,   2.49117637,   2.98941183,           0.
    319,   2.98941183,   2.98941183,           0.
    320,   3.48764706,   2.98941183,           0.
    321,   3.98588228,   2.98941183,           0.
    322,   4.48411751,   2.98941183,           0.
    323,   4.98235273,   2.98941183,           0.
    324,   5.48058844,   2.98941183,           0.
    325,   5.97882366,   2.98941183,           0.
    326,   6.47705889,   2.98941183,           0.
    327,   6.97529411,   2.98941183,           0.
    328,   7.47352934,   2.98941183,           0.
    329,   7.97176456,   2.98941183,           0.
    330,   8.47000027,   2.98941183,           0.
    331,   8.96823502,   2.98941183,           0.
    332,   9.46647072,   2.98941183,           0.
    333,   9.96470547,   2.98941183,           0.
    334,   10.4629412,   2.98941183,           0.
    335,   10.9611769,   2.98941183,           0.
    336,   11.4594116,   2.98941183,           0.
    337,   11.9576473,   2.98941183,           0.
    338,   12.4558821,   2.98941183,           0.
    339,   12.9541178,   2.98941183,           0.
    340,   13.4523525,   2.98941183,           0.
    341,   13.9505882,   2.98941183,           0.
    342,   14.4488239,   2.98941183,           0.
    343,   14.9470587,   2.98941183,           0.
    344,   15.4452944,   2.98941183,           0.
    345,   15.9435291,   2.98941183,           0.
    346,   16.4417648,   2.98941183,           0.
    347,   16.9400005,   2.98941183,           0.
    348,   17.4382362,   2.98941183,           0.
    349,     17.93647,   2.98941183,           0.
    350,   18.4347057,   2.98941183,           0.
    351,   18.9329414,   2.98941183,           0.
    352,   19.4311771,   2.98941183,           0.
    353,   19.9294109,   2.98941183,           0.
    354,   20.4276466,   2.98941183,           0.
    355,   20.9258823,   2.98941183,           0.
    356,    21.424118,   2.98941183,           0.
    357,   21.9223537,   2.98941183,           0.
    358,   22.4205875,   2.98941183,           0.
    359,   22.9188232,   2.98941183,           0.
    360,   23.4170589,   2.98941183,           0.
    361,   23.9152946,   2.98941183,           0.
    362,   24.4135303,   2.98941183,           0.
    363,   24.9117641,   2.98941183,           0.
    364,   25.4099998,   2.98941183,           0.
    365,           0.,   3.48764706,           0.
    366,  0.498235285,   3.48764706,           0.
    367,  0.996470571,   3.48764706,           0.
    368,   1.49470592,   3.48764706,           0.
    369,   1.99294114,   3.48764706,           0.
    370,   2.49117637,   3.48764706,           0.
    371,   2.98941183,   3.48764706,           0.
    372,   3.48764706,   3.48764706,           0.
    373,   3.98588228,   3.48764706,           0.
    374,   4.48411751,   3.48764706,           0.
    375,   4.98235273,   3.48764706,           0.
    376,   5.48058844,   3.48764706,           0.
    377,   5.97882366,   3.48764706,           0.
    378,   6.47705889,   3.48764706,           0.
    379,   6.97529411,   3.48764706,           0.
    380,   7.47352934,   3.48764706,           0.
    381,   7.97176456,   3.48764706,           0.
    382,   8.47000027,   3.48764706,           0.
    383,   8.96823502,   3.48764706,           0.
    384,   9.46647072,   3.48764706,           0.
    385,   9.96470547,   3.48764706,           0.
    386,   10.4629412,   3.48764706,           0.
    387,   10.9611769,   3.48764706,           0.
    388,   11.4594116,   3.48764706,           0.
    389,   11.9576473,   3.48764706,           0.
    390,   12.4558821,   3.48764706,           0.
    391,   12.9541178,   3.48764706,           0.
    392,   13.4523525,   3.48764706,           0.
    393,   13.9505882,   3.48764706,           0.
    394,   14.4488239,   3.48764706,           0.
    395,   14.9470587,   3.48764706,           0.
    396,   15.4452944,   3.48764706,           0.
    397,   15.9435291,   3.48764706,           0.
    398,   16.4417648,   3.48764706,           0.
    399,   16.9400005,   3.48764706,           0.
    400,   17.4382362,   3.48764706,           0.
    401,     17.93647,   3.48764706,           0.
    402,   18.4347057,   3.48764706,           0.
    403,   18.9329414,   3.48764706,           0.
    404,   19.4311771,   3.48764706,           0.
    405,   19.9294109,   3.48764706,           0.
    406,   20.4276466,   3.48764706,           0.
    407,   20.9258823,   3.48764706,           0.
    408,    21.424118,   3.48764706,           0.
    409,   21.9223537,   3.48764706,           0.
    410,   22.4205875,   3.48764706,           0.
    411,   22.9188232,   3.48764706,           0.
    412,   23.4170589,   3.48764706,           0.
    413,   23.9152946,   3.48764706,           0.
    414,   24.4135303,   3.48764706,           0.
    415,   24.9117641,   3.48764706,           0.
    416,   25.4099998,   3.48764706,           0.
    417,           0.,   3.98588228,           0.
    418,  0.498235285,   3.98588228,           0.
    419,  0.996470571,   3.98588228,           0.
    420,   1.49470592,   3.98588228,           0.
    421,   1.99294114,   3.98588228,           0.
    422,   2.49117637,   3.98588228,           0.
    423,   2.98941183,   3.98588228,           0.
    424,   3.48764706,   3.98588228,           0.
    425,   3.98588228,   3.98588228,           0.
    426,   4.48411751,   3.98588228,           0.
    427,   4.98235273,   3.98588228,           0.
    428,   5.48058844,   3.98588228,           0.
    429,   5.97882366,   3.98588228,           0.
    430,   6.47705889,   3.98588228,           0.
    431,   6.97529411,   3.98588228,           0.
    432,   7.47352934,   3.98588228,           0.
    433,   7.97176456,   3.98588228,           0.
    434,   8.47000027,   3.98588228,           0.
    435,   8.96823502,   3.98588228,           0.
    436,   9.46647072,   3.98588228,           0.
    437,   9.96470547,   3.98588228,           0.
    438,   10.4629412,   3.98588228,           0.
    439,   10.9611769,   3.98588228,           0.
    440,   11.4594116,   3.98588228,           0.
    441,   11.9576473,   3.98588228,           0.
    442,   12.4558821,   3.98588228,           0.
    443,   12.9541178,   3.98588228,           0.
    444,   13.4523525,   3.98588228,           0.
    445,   13.9505882,   3.98588228,           0.
    446,   14.4488239,   3.98588228,           0.
    447,   14.9470587,   3.98588228,           0.
    448,   15.4452944,   3.98588228,           0.
    449,   15.9435291,   3.98588228,           0.
    450,   16.4417648,   3.98588228,           0.
    451,   16.9400005,   3.98588228,           0.
    452,   17.4382362,   3.98588228,           0.
    453,     17.93647,   3.98588228,           0.
    454,   18.4347057,   3.98588228,           0.
    455,   18.9329414,   3.98588228,           0.
    456,   19.4311771,   3.98588228,           0.
    457,   19.9294109,   3.98588228,           0.
    458,   20.4276466,   3.98588228,           0.
    459,   20.9258823,   3.98588228,           0.
    460,    21.424118,   3.98588228,           0.
    461,   21.9223537,   3.98588228,           0.
    462,   22.4205875,   3.98588228,           0.
    463,   22.9188232,   3.98588228,           0.
    464,   23.4170589,   3.98588228,           0.
    465,   23.9152946,   3.98588228,           0.
    466,   24.4135303,   3.98588228,           0.
    467,   24.9117641,   3.98588228,           0.
    468,   25.4099998,   3.98588228,           0.
    469,           0.,   4.48411751,           0.
    470,  0.498235285,   4.48411751,           0.
    471,  0.996470571,   4.48411751,           0.
    472,   1.49470592,   4.48411751,           0.
    473,   1.99294114,   4.48411751,           0.
    474,   2.49117637,   4.48411751,           0.
    475,   2.98941183,   4.48411751,           0.
    476,   3.48764706,   4.48411751,           0.
    477,   3.98588228,   4.48411751,           0.
    478,   4.48411751,   4.48411751,           0.
    479,   4.98235273,   4.48411751,           0.
    480,   5.48058844,   4.48411751,           0.
    481,   5.97882366,   4.48411751,           0.
    482,   6.47705889,   4.48411751,           0.
    483,   6.97529411,   4.48411751,           0.
    484,   7.47352934,   4.48411751,           0.
    485,   7.97176456,   4.48411751,           0.
    486,   8.47000027,   4.48411751,           0.
    487,   8.96823502,   4.48411751,           0.
    488,   9.46647072,   4.48411751,           0.
    489,   9.96470547,   4.48411751,           0.
    490,   10.4629412,   4.48411751,           0.
    491,   10.9611769,   4.48411751,           0.
    492,   11.4594116,   4.48411751,           0.
    493,   11.9576473,   4.48411751,           0.
    494,   12.4558821,   4.48411751,           0.
    495,   12.9541178,   4.48411751,           0.
    496,   13.4523525,   4.48411751,           0.
    497,   13.9505882,   4.48411751,           0.
    498,   14.4488239,   4.48411751,           0.
    499,   14.9470587,   4.48411751,           0.
    500,   15.4452944,   4.48411751,           0.
    501,   15.9435291,   4.48411751,           0.
    502,   16.4417648,   4.48411751,           0.
    503,   16.9400005,   4.48411751,           0.
    504,   17.4382362,   4.48411751,           0.
    505,     17.93647,   4.48411751,           0.
    506,   18.4347057,   4.48411751,           0.
    507,   18.9329414,   4.48411751,           0.
    508,   19.4311771,   4.48411751,           0.
    509,   19.9294109,   4.48411751,           0.
    510,   20.4276466,   4.48411751,           0.
    511,   20.9258823,   4.48411751,           0.
    512,    21.424118,   4.48411751,           0.
    513,   21.9223537,   4.48411751,           0.
    514,   22.4205875,   4.48411751,           0.
    515,   22.9188232,   4.48411751,           0.
    516,   23.4170589,   4.48411751,           0.
    517,   23.9152946,   4.48411751,           0.
    518,   24.4135303,   4.48411751,           0.
    519,   24.9117641,   4.48411751,           0.
    520,   25.4099998,   4.48411751,           0.
    521,           0.,   4.98235273,           0.
    522,  0.498235285,   4.98235273,           0.
    523,  0.996470571,   4.98235273,           0.
    524,   1.49470592,   4.98235273,           0.
    525,   1.99294114,   4.98235273,           0.
    526,   2.49117637,   4.98235273,           0.
    527,   2.98941183,   4.98235273,           0.
    528,   3.48764706,   4.98235273,           0.
    529,   3.98588228,   4.98235273,           0.
    530,   4.48411751,   4.98235273,           0.
    531,   4.98235273,   4.98235273,           0.
    532,   5.48058844,   4.98235273,           0.
    533,   5.97882366,   4.98235273,           0.
    534,   6.47705889,   4.98235273,           0.
    535,   6.97529411,   4.98235273,           0.
    536,   7.47352934,   4.98235273,           0.
    537,   7.97176456,   4.98235273,           0.
    538,   8.47000027,   4.98235273,           0.
    539,   8.96823502,   4.98235273,           0.
    540,   9.46647072,   4.98235273,           0.
    541,   9.96470547,   4.98235273,           0.
    542,   10.4629412,   4.98235273,           0.
    543,   10.9611769,   4.98235273,           0.
    544,   11.4594116,   4.98235273,           0.
    545,   11.9576473,   4.98235273,           0.
    546,   12.4558821,   4.98235273,           0.
    547,   12.9541178,   4.98235273,           0.
    548,   13.4523525,   4.98235273,           0.
    549,   13.9505882,   4.98235273,           0.
    550,   14.4488239,   4.98235273,           0.
    551,   14.9470587,   4.98235273,           0.
    552,   15.4452944,   4.98235273,           0.
    553,   15.9435291,   4.98235273,           0.
    554,   16.4417648,   4.98235273,           0.
    555,   16.9400005,   4.98235273,           0.
    556,   17.4382362,   4.98235273,           0.
    557,     17.93647,   4.98235273,           0.
    558,   18.4347057,   4.98235273,           0.
    559,   18.9329414,   4.98235273,           0.
    560,   19.4311771,   4.98235273,           0.
    561,   19.9294109,   4.98235273,           0.
    562,   20.4276466,   4.98235273,           0.
    563,   20.9258823,   4.98235273,           0.
    564,    21.424118,   4.98235273,           0.
    565,   21.9223537,   4.98235273,           0.
    566,   22.4205875,   4.98235273,           0.
    567,   22.9188232,   4.98235273,           0.
    568,   23.4170589,   4.98235273,           0.
    569,   23.9152946,   4.98235273,           0.
    570,   24.4135303,   4.98235273,           0.
    571,   24.9117641,   4.98235273,           0.
    572,   25.4099998,   4.98235273,           0.
    573,           0.,   5.48058844,           0.
    574,  0.498235285,   5.48058844,           0.
    575,  0.996470571,   5.48058844,           0.
    576,   1.49470592,   5.48058844,           0.
    577,   1.99294114,   5.48058844,           0.
    578,   2.49117637,   5.48058844,           0.
    579,   2.98941183,   5.48058844,           0.
    580,   3.48764706,   5.48058844,           0.
    581,   3.98588228,   5.48058844,           0.
    582,   4.48411751,   5.48058844,           0.
    583,   4.98235273,   5.48058844,           0.
    584,   5.48058844,   5.48058844,           0.
    585,   5.97882366,   5.48058844,           0.
    586,   6.47705889,   5.48058844,           0.
    587,   6.97529411,   5.48058844,           0.
    588,   7.47352934,   5.48058844,           0.
    589,   7.97176456,   5.48058844,           0.
    590,   8.47000027,   5.48058844,           0.
    591,   8.96823502,   5.48058844,           0.
    592,   9.46647072,   5.48058844,           0.
    593,   9.96470547,   5.48058844,           0.
    594,   10.4629412,   5.48058844,           0.
    595,   10.9611769,   5.48058844,           0.
    596,   11.4594116,   5.48058844,           0.
    597,   11.9576473,   5.48058844,           0.
    598,   12.4558821,   5.48058844,           0.
    599,   12.9541178,   5.48058844,           0.
    600,   13.4523525,   5.48058844,           0.
    601,   13.9505882,   5.48058844,           0.
    602,   14.4488239,   5.48058844,           0.
    603,   14.9470587,   5.48058844,           0.
    604,   15.4452944,   5.48058844,           0.
    605,   15.9435291,   5.48058844,           0.
    606,   16.4417648,   5.48058844,           0.
    607,   16.9400005,   5.48058844,           0.
    608,   17.4382362,   5.48058844,           0.
    609,     17.93647,   5.48058844,           0.
    610,   18.4347057,   5.48058844,           0.
    611,   18.9329414,   5.48058844,           0.
    612,   19.4311771,   5.48058844,           0.
    613,   19.9294109,   5.48058844,           0.
    614,   20.4276466,   5.48058844,           0.
    615,   20.9258823,   5.48058844,           0.
    616,    21.424118,   5.48058844,           0.
    617,   21.9223537,   5.48058844,           0.
    618,   22.4205875,   5.48058844,           0.
    619,   22.9188232,   5.48058844,           0.
    620,   23.4170589,   5.48058844,           0.
    621,   23.9152946,   5.48058844,           0.
    622,   24.4135303,   5.48058844,           0.
    623,   24.9117641,   5.48058844,           0.
    624,   25.4099998,   5.48058844,           0.
    625,           0.,   5.97882366,           0.
    626,  0.498235285,   5.97882366,           0.
    627,  0.996470571,   5.97882366,           0.
    628,   1.49470592,   5.97882366,           0.
    629,   1.99294114,   5.97882366,           0.
    630,   2.49117637,   5.97882366,           0.
    631,   2.98941183,   5.97882366,           0.
    632,   3.48764706,   5.97882366,           0.
    633,   3.98588228,   5.97882366,           0.
    634,   4.48411751,   5.97882366,           0.
    635,   4.98235273,   5.97882366,           0.
    636,   5.48058844,   5.97882366,           0.
    637,   5.97882366,   5.97882366,           0.
    638,   6.47705889,   5.97882366,           0.
    639,   6.97529411,   5.97882366,           0.
    640,   7.47352934,   5.97882366,           0.
    641,   7.97176456,   5.97882366,           0.
    642,   8.47000027,   5.97882366,           0.
    643,   8.96823502,   5.97882366,           0.
    644,   9.46647072,   5.97882366,           0.
    645,   9.96470547,   5.97882366,           0.
    646,   10.4629412,   5.97882366,           0.
    647,   10.9611769,   5.97882366,           0.
    648,   11.4594116,   5.97882366,           0.
    649,   11.9576473,   5.97882366,           0.
    650,   12.4558821,   5.97882366,           0.
    651,   12.9541178,   5.97882366,           0.
    652,   13.4523525,   5.97882366,           0.
    653,   13.9505882,   5.97882366,           0.
    654,   14.4488239,   5.97882366,           0.
    655,   14.9470587,   5.97882366,           0.
    656,   15.4452944,   5.97882366,           0.
    657,   15.9435291,   5.97882366,           0.
    658,   16.4417648,   5.97882366,           0.
    659,   16.9400005,   5.97882366,           0.
    660,   17.4382362,   5.97882366,           0.
    661,     17.93647,   5.97882366,           0.
    662,   18.4347057,   5.97882366,           0.
    663,   18.9329414,   5.97882366,           0.
    664,   19.4311771,   5.97882366,           0.
    665,   19.9294109,   5.97882366,           0.
    666,   20.4276466,   5.97882366,           0.
    667,   20.9258823,   5.97882366,           0.
    668,    21.424118,   5.97882366,           0.
    669,   21.9223537,   5.97882366,           0.
    670,   22.4205875,   5.97882366,           0.
    671,   22.9188232,   5.97882366,           0.
    672,   23.4170589,   5.97882366,           0.
    673,   23.9152946,   5.97882366,           0.
    674,   24.4135303,   5.97882366,           0.
    675,   24.9117641,   5.97882366,           0.
    676,   25.4099998,   5.97882366,           0.
    677,           0.,   6.47705889,           0.
    678,  0.498235285,   6.47705889,           0.
    679,  0.996470571,   6.47705889,           0.
    680,   1.49470592,   6.47705889,           0.
    681,   1.99294114,   6.47705889,           0.
    682,   2.49117637,   6.47705889,           0.
    683,   2.98941183,   6.47705889,           0.
    684,   3.48764706,   6.47705889,           0.
    685,   3.98588228,   6.47705889,           0.
    686,   4.48411751,   6.47705889,           0.
    687,   4.98235273,   6.47705889,           0.
    688,   5.48058844,   6.47705889,           0.
    689,   5.97882366,   6.47705889,           0.
    690,   6.47705889,   6.47705889,           0.
    691,   6.97529411,   6.47705889,           0.
    692,   7.47352934,   6.47705889,           0.
    693,   7.97176456,   6.47705889,           0.
    694,   8.47000027,   6.47705889,           0.
    695,   8.96823502,   6.47705889,           0.
    696,   9.46647072,   6.47705889,           0.
    697,   9.96470547,   6.47705889,           0.
    698,   10.4629412,   6.47705889,           0.
    699,   10.9611769,   6.47705889,           0.
    700,   11.4594116,   6.47705889,           0.
    701,   11.9576473,   6.47705889,           0.
    702,   12.4558821,   6.47705889,           0.
    703,   12.9541178,   6.47705889,           0.
    704,   13.4523525,   6.47705889,           0.
    705,   13.9505882,   6.47705889,           0.
    706,   14.4488239,   6.47705889,           0.
    707,   14.9470587,   6.47705889,           0.
    708,   15.4452944,   6.47705889,           0.
    709,   15.9435291,   6.47705889,           0.
    710,   16.4417648,   6.47705889,           0.
    711,   16.9400005,   6.47705889,           0.
    712,   17.4382362,   6.47705889,           0.
    713,     17.93647,   6.47705889,           0.
    714,   18.4347057,   6.47705889,           0.
    715,   18.9329414,   6.47705889,           0.
    716,   19.4311771,   6.47705889,           0.
    717,   19.9294109,   6.47705889,           0.
    718,   20.4276466,   6.47705889,           0.
    719,   20.9258823,   6.47705889,           0.
    720,    21.424118,   6.47705889,           0.
    721,   21.9223537,   6.47705889,           0.
    722,   22.4205875,   6.47705889,           0.
    723,   22.9188232,   6.47705889,           0.
    724,   23.4170589,   6.47705889,           0.
    725,   23.9152946,   6.47705889,           0.
    726,   24.4135303,   6.47705889,           0.
    727,   24.9117641,   6.47705889,           0.
    728,   25.4099998,   6.47705889,           0.
    729,           0.,   6.97529411,           0.
    730,  0.498235285,   6.97529411,           0.
    731,  0.996470571,   6.97529411,           0.
    732,   1.49470592,   6.97529411,           0.
    733,   1.99294114,   6.97529411,           0.
    734,   2.49117637,   6.97529411,           0.
    735,   2.98941183,   6.97529411,           0.
    736,   3.48764706,   6.97529411,           0.
    737,   3.98588228,   6.97529411,           0.
    738,   4.48411751,   6.97529411,           0.
    739,   4.98235273,   6.97529411,           0.
    740,   5.48058844,   6.97529411,           0.
    741,   5.97882366,   6.97529411,           0.
    742,   6.47705889,   6.97529411,           0.
    743,   6.97529411,   6.97529411,           0.
    744,   7.47352934,   6.97529411,           0.
    745,   7.97176456,   6.97529411,           0.
    746,   8.47000027,   6.97529411,           0.
    747,   8.96823502,   6.97529411,           0.
    748,   9.46647072,   6.97529411,           0.
    749,   9.96470547,   6.97529411,           0.
    750,   10.4629412,   6.97529411,           0.
    751,   10.9611769,   6.97529411,           0.
    752,   11.4594116,   6.97529411,           0.
    753,   11.9576473,   6.97529411,           0.
    754,   12.4558821,   6.97529411,           0.
    755,   12.9541178,   6.97529411,           0.
    756,   13.4523525,   6.97529411,           0.
    757,   13.9505882,   6.97529411,           0.
    758,   14.4488239,   6.97529411,           0.
    759,   14.9470587,   6.97529411,           0.
    760,   15.4452944,   6.97529411,           0.
    761,   15.9435291,   6.97529411,           0.
    762,   16.4417648,   6.97529411,           0.
    763,   16.9400005,   6.97529411,           0.
    764,   17.4382362,   6.97529411,           0.
    765,     17.93647,   6.97529411,           0.
    766,   18.4347057,   6.97529411,           0.
    767,   18.9329414,   6.97529411,           0.
    768,   19.4311771,   6.97529411,           0.
    769,   19.9294109,   6.97529411,           0.
    770,   20.4276466,   6.97529411,           0.
    771,   20.9258823,   6.97529411,           0.
    772,    21.424118,   6.97529411,           0.
    773,   21.9223537,   6.97529411,           0.
    774,   22.4205875,   6.97529411,           0.
    775,   22.9188232,   6.97529411,           0.
    776,   23.4170589,   6.97529411,           0.
    777,   23.9152946,   6.97529411,           0.
    778,   24.4135303,   6.97529411,           0.
    779,   24.9117641,   6.97529411,           0.
    780,   25.4099998,   6.97529411,           0.
    781,           0.,   7.47352934,           0.
    782,  0.498235285,   7.47352934,           0.
    783,  0.996470571,   7.47352934,           0.
    784,   1.49470592,   7.47352934,           0.
    785,   1.99294114,   7.47352934,           0.
    786,   2.49117637,   7.47352934,           0.
    787,   2.98941183,   7.47352934,           0.
    788,   3.48764706,   7.47352934,           0.
    789,   3.98588228,   7.47352934,           0.
    790,   4.48411751,   7.47352934,           0.
    791,   4.98235273,   7.47352934,           0.
    792,   5.48058844,   7.47352934,           0.
    793,   5.97882366,   7.47352934,           0.
    794,   6.47705889,   7.47352934,           0.
    795,   6.97529411,   7.47352934,           0.
    796,   7.47352934,   7.47352934,           0.
    797,   7.97176456,   7.47352934,           0.
    798,   8.47000027,   7.47352934,           0.
    799,   8.96823502,   7.47352934,           0.
    800,   9.46647072,   7.47352934,           0.
    801,   9.96470547,   7.47352934,           0.
    802,   10.4629412,   7.47352934,           0.
    803,   10.9611769,   7.47352934,           0.
    804,   11.4594116,   7.47352934,           0.
    805,   11.9576473,   7.47352934,           0.
    806,   12.4558821,   7.47352934,           0.
    807,   12.9541178,   7.47352934,           0.
    808,   13.4523525,   7.47352934,           0.
    809,   13.9505882,   7.47352934,           0.
    810,   14.4488239,   7.47352934,           0.
    811,   14.9470587,   7.47352934,           0.
    812,   15.4452944,   7.47352934,           0.
    813,   15.9435291,   7.47352934,           0.
    814,   16.4417648,   7.47352934,           0.
    815,   16.9400005,   7.47352934,           0.
    816,   17.4382362,   7.47352934,           0.
    817,     17.93647,   7.47352934,           0.
    818,   18.4347057,   7.47352934,           0.
    819,   18.9329414,   7.47352934,           0.
    820,   19.4311771,   7.47352934,           0.
    821,   19.9294109,   7.47352934,           0.
    822,   20.4276466,   7.47352934,           0.
    823,   20.9258823,   7.47352934,           0.
    824,    21.424118,   7.47352934,           0.
    825,   21.9223537,   7.47352934,           0.
    826,   22.4205875,   7.47352934,           0.
    827,   22.9188232,   7.47352934,           0.
    828,   23.4170589,   7.47352934,           0.
    829,   23.9152946,   7.47352934,           0.
    830,   24.4135303,   7.47352934,           0.
    831,   24.9117641,   7.47352934,           0.
    832,   25.4099998,   7.47352934,           0.
    833,           0.,   7.97176456,           0.
    834,  0.498235285,   7.97176456,           0.
    835,  0.996470571,   7.97176456,           0.
    836,   1.49470592,   7.97176456,           0.
    837,   1.99294114,   7.97176456,           0.
    838,   2.49117637,   7.97176456,           0.
    839,   2.98941183,   7.97176456,           0.
    840,   3.48764706,   7.97176456,           0.
    841,   3.98588228,   7.97176456,           0.
    842,   4.48411751,   7.97176456,           0.
    843,   4.98235273,   7.97176456,           0.
    844,   5.48058844,   7.97176456,           0.
    845,   5.97882366,   7.97176456,           0.
    846,   6.47705889,   7.97176456,           0.
    847,   6.97529411,   7.97176456,           0.
    848,   7.47352934,   7.97176456,           0.
    849,   7.97176456,   7.97176456,           0.
    850,   8.47000027,   7.97176456,           0.
    851,   8.96823502,   7.97176456,           0.
    852,   9.46647072,   7.97176456,           0.
    853,   9.96470547,   7.97176456,           0.
    854,   10.4629412,   7.97176456,           0.
    855,   10.9611769,   7.97176456,           0.
    856,   11.4594116,   7.97176456,           0.
    857,   11.9576473,   7.97176456,           0.
    858,   12.4558821,   7.97176456,           0.
    859,   12.9541178,   7.97176456,           0.
    860,   13.4523525,   7.97176456,           0.
    861,   13.9505882,   7.97176456,           0.
    862,   14.4488239,   7.97176456,           0.
    863,   14.9470587,   7.97176456,           0.
    864,   15.4452944,   7.97176456,           0.
    865,   15.9435291,   7.97176456,           0.
    866,   16.4417648,   7.97176456,           0.
    867,   16.9400005,   7.97176456,           0.
    868,   17.4382362,   7.97176456,           0.
    869,     17.93647,   7.97176456,           0.
    870,   18.4347057,   7.97176456,           0.
    871,   18.9329414,   7.97176456,           0.
    872,   19.4311771,   7.97176456,           0.
    873,   19.9294109,   7.97176456,           0.
    874,   20.4276466,   7.97176456,           0.
    875,   20.9258823,   7.97176456,           0.
    876,    21.424118,   7.97176456,           0.
    877,   21.9223537,   7.97176456,           0.
    878,   22.4205875,   7.97176456,           0.
    879,   22.9188232,   7.97176456,           0.
    880,   23.4170589,   7.97176456,           0.
    881,   23.9152946,   7.97176456,           0.
    882,   24.4135303,   7.97176456,           0.
    883,   24.9117641,   7.97176456,           0.
    884,   25.4099998,   7.97176456,           0.
    885,           0.,   8.47000027,           0.
    886,  0.498235285,   8.47000027,           0.
    887,  0.996470571,   8.47000027,           0.
    888,   1.49470592,   8.47000027,           0.
    889,   1.99294114,   8.47000027,           0.
    890,   2.49117637,   8.47000027,           0.
    891,   2.98941183,   8.47000027,           0.
    892,   3.48764706,   8.47000027,           0.
    893,   3.98588228,   8.47000027,           0.
    894,   4.48411751,   8.47000027,           0.
    895,   4.98235273,   8.47000027,           0.
    896,   5.48058844,   8.47000027,           0.
    897,   5.97882366,   8.47000027,           0.
    898,   6.47705889,   8.47000027,           0.
    899,   6.97529411,   8.47000027,           0.
    900,   7.47352934,   8.47000027,           0.
    901,   7.97176456,   8.47000027,           0.
    902,   8.47000027,   8.47000027,           0.
    903,   8.96823502,   8.47000027,           0.
    904,   9.46647072,   8.47000027,           0.
    905,   9.96470547,   8.47000027,           0.
    906,   10.4629412,   8.47000027,           0.
    907,   10.9611769,   8.47000027,           0.
    908,   11.4594116,   8.47000027,           0.
    909,   11.9576473,   8.47000027,           0.
    910,   12.4558821,   8.47000027,           0.
    911,   12.9541178,   8.47000027,           0.
    912,   13.4523525,   8.47000027,           0.
    913,   13.9505882,   8.47000027,           0.
    914,   14.4488239,   8.47000027,           0.
    915,   14.9470587,   8.47000027,           0.
    916,   15.4452944,   8.47000027,           0.
    917,   15.9435291,   8.47000027,           0.
    918,   16.4417648,   8.47000027,           0.
    919,   16.9400005,   8.47000027,           0.
    920,   17.4382362,   8.47000027,           0.
    921,     17.93647,   8.47000027,           0.
    922,   18.4347057,   8.47000027,           0.
    923,   18.9329414,   8.47000027,           0.
    924,   19.4311771,   8.47000027,           0.
    925,   19.9294109,   8.47000027,           0.
    926,   20.4276466,   8.47000027,           0.
    927,   20.9258823,   8.47000027,           0.
    928,    21.424118,   8.47000027,           0.
    929,   21.9223537,   8.47000027,           0.
    930,   22.4205875,   8.47000027,           0.
    931,   22.9188232,   8.47000027,           0.
    932,   23.4170589,   8.47000027,           0.
    933,   23.9152946,   8.47000027,           0.
    934,   24.4135303,   8.47000027,           0.
    935,   24.9117641,   8.47000027,           0.
    936,   25.4099998,   8.47000027,           0.
    937,           0.,   8.96823502,           0.
    938,  0.498235285,   8.96823502,           0.
    939,  0.996470571,   8.96823502,           0.
    940,   1.49470592,   8.96823502,           0.
    941,   1.99294114,   8.96823502,           0.
    942,   2.49117637,   8.96823502,           0.
    943,   2.98941183,   8.96823502,           0.
    944,   3.48764706,   8.96823502,           0.
    945,   3.98588228,   8.96823502,           0.
    946,   4.48411751,   8.96823502,           0.
    947,   4.98235273,   8.96823502,           0.
    948,   5.48058844,   8.96823502,           0.
    949,   5.97882366,   8.96823502,           0.
    950,   6.47705889,   8.96823502,           0.
    951,   6.97529411,   8.96823502,           0.
    952,   7.47352934,   8.96823502,           0.
    953,   7.97176456,   8.96823502,           0.
    954,   8.47000027,   8.96823502,           0.
    955,   8.96823502,   8.96823502,           0.
    956,   9.46647072,   8.96823502,           0.
    957,   9.96470547,   8.96823502,           0.
    958,   10.4629412,   8.96823502,           0.
    959,   10.9611769,   8.96823502,           0.
    960,   11.4594116,   8.96823502,           0.
    961,   11.9576473,   8.96823502,           0.
    962,   12.4558821,   8.96823502,           0.
    963,   12.9541178,   8.96823502,           0.
    964,   13.4523525,   8.96823502,           0.
    965,   13.9505882,   8.96823502,           0.
    966,   14.4488239,   8.96823502,           0.
    967,   14.9470587,   8.96823502,           0.
    968,   15.4452944,   8.96823502,           0.
    969,   15.9435291,   8.96823502,           0.
    970,   16.4417648,   8.96823502,           0.
    971,   16.9400005,   8.96823502,           0.
    972,   17.4382362,   8.96823502,           0.
    973,     17.93647,   8.96823502,           0.
    974,   18.4347057,   8.96823502,           0.
    975,   18.9329414,   8.96823502,           0.
    976,   19.4311771,   8.96823502,           0.
    977,   19.9294109,   8.96823502,           0.
    978,   20.4276466,   8.96823502,           0.
    979,   20.9258823,   8.96823502,           0.
    980,    21.424118,   8.96823502,           0.
    981,   21.9223537,   8.96823502,           0.
    982,   22.4205875,   8.96823502,           0.
    983,   22.9188232,   8.96823502,           0.
    984,   23.4170589,   8.96823502,           0.
    985,   23.9152946,   8.96823502,           0.
    986,   24.4135303,   8.96823502,           0.
    987,   24.9117641,   8.96823502,           0.
    988,   25.4099998,   8.96823502,           0.
    989,           0.,   9.46647072,           0.
    990,  0.498235285,   9.46647072,           0.
    991,  0.996470571,   9.46647072,           0.
    992,   1.49470592,   9.46647072,           0.
    993,   1.99294114,   9.46647072,           0.
    994,   2.49117637,   9.46647072,           0.
    995,   2.98941183,   9.46647072,           0.
    996,   3.48764706,   9.46647072,           0.
    997,   3.98588228,   9.46647072,           0.
    998,   4.48411751,   9.46647072,           0.
    999,   4.98235273,   9.46647072,           0.
   1000,   5.48058844,   9.46647072,           0.
   1001,   5.97882366,   9.46647072,           0.
   1002,   6.47705889,   9.46647072,           0.
   1003,   6.97529411,   9.46647072,           0.
   1004,   7.47352934,   9.46647072,           0.
   1005,   7.97176456,   9.46647072,           0.
   1006,   8.47000027,   9.46647072,           0.
   1007,   8.96823502,   9.46647072,           0.
   1008,   9.46647072,   9.46647072,           0.
   1009,   9.96470547,   9.46647072,           0.
   1010,   10.4629412,   9.46647072,           0.
   1011,   10.9611769,   9.46647072,           0.
   1012,   11.4594116,   9.46647072,           0.
   1013,   11.9576473,   9.46647072,           0.
   1014,   12.4558821,   9.46647072,           0.
   1015,   12.9541178,   9.46647072,           0.
   1016,   13.4523525,   9.46647072,           0.
   1017,   13.9505882,   9.46647072,           0.
   1018,   14.4488239,   9.46647072,           0.
   1019,   14.9470587,   9.46647072,           0.
   1020,   15.4452944,   9.46647072,           0.
   1021,   15.9435291,   9.46647072,           0.
   1022,   16.4417648,   9.46647072,           0.
   1023,   16.9400005,   9.46647072,           0.
   1024,   17.4382362,   9.46647072,           0.
   1025,     17.93647,   9.46647072,           0.
   1026,   18.4347057,   9.46647072,           0.
   1027,   18.9329414,   9.46647072,           0.
   1028,   19.4311771,   9.46647072,           0.
   1029,   19.9294109,   9.46647072,           0.
   1030,   20.4276466,   9.46647072,           0.
   1031,   20.9258823,   9.46647072,           0.
   1032,    21.424118,   9.46647072,           0.
   1033,   21.9223537,   9.46647072,           0.
   1034,   22.4205875,   9.46647072,           0.
   1035,   22.9188232,   9.46647072,           0.
   1036,   23.4170589,   9.46647072,           0.
   1037,   23.9152946,   9.46647072,           0.
   1038,   24.4135303,   9.46647072,           0.
   1039,   24.9117641,   9.46647072,           0.
   1040,   25.4099998,   9.46647072,           0.
   1041,           0.,   9.96470547,           0.
   1042,  0.498235285,   9.96470547,           0.
   1043,  0.996470571,   9.96470547,           0.
   1044,   1.49470592,   9.96470547,           0.
   1045,   1.99294114,   9.96470547,           0.
   1046,   2.49117637,   9.96470547,           0.
   1047,   2.98941183,   9.96470547,           0.
   1048,   3.48764706,   9.96470547,           0.
   1049,   3.98588228,   9.96470547,           0.
   1050,   4.48411751,   9.96470547,           0.
   1051,   4.98235273,   9.96470547,           0.
   1052,   5.48058844,   9.96470547,           0.
   1053,   5.97882366,   9.96470547,           0.
   1054,   6.47705889,   9.96470547,           0.
   1055,   6.97529411,   9.96470547,           0.
   1056,   7.47352934,   9.96470547,           0.
   1057,   7.97176456,   9.96470547,           0.
   1058,   8.47000027,   9.96470547,           0.
   1059,   8.96823502,   9.96470547,           0.
   1060,   9.46647072,   9.96470547,           0.
   1061,   9.96470547,   9.96470547,           0.
   1062,   10.4629412,   9.96470547,           0.
   1063,   10.9611769,   9.96470547,           0.
   1064,   11.4594116,   9.96470547,           0.
   1065,   11.9576473,   9.96470547,           0.
   1066,   12.4558821,   9.96470547,           0.
   1067,   12.9541178,   9.96470547,           0.
   1068,   13.4523525,   9.96470547,           0.
   1069,   13.9505882,   9.96470547,           0.
   1070,   14.4488239,   9.96470547,           0.
   1071,   14.9470587,   9.96470547,           0.
   1072,   15.4452944,   9.96470547,           0.
   1073,   15.9435291,   9.96470547,           0.
   1074,   16.4417648,   9.96470547,           0.
   1075,   16.9400005,   9.96470547,           0.
   1076,   17.4382362,   9.96470547,           0.
   1077,     17.93647,   9.96470547,           0.
   1078,   18.4347057,   9.96470547,           0.
   1079,   18.9329414,   9.96470547,           0.
   1080,   19.4311771,   9.96470547,           0.
   1081,   19.9294109,   9.96470547,           0.
   1082,   20.4276466,   9.96470547,           0.
   1083,   20.9258823,   9.96470547,           0.
   1084,    21.424118,   9.96470547,           0.
   1085,   21.9223537,   9.96470547,           0.
   1086,   22.4205875,   9.96470547,           0.
   1087,   22.9188232,   9.96470547,           0.
   1088,   23.4170589,   9.96470547,           0.
   1089,   23.9152946,   9.96470547,           0.
   1090,   24.4135303,   9.96470547,           0.
   1091,   24.9117641,   9.96470547,           0.
   1092,   25.4099998,   9.96470547,           0.
   1093,           0.,   10.4629412,           0.
   1094,  0.498235285,   10.4629412,           0.
   1095,  0.996470571,   10.4629412,           0.
   1096,   1.49470592,   10.4629412,           0.
   1097,   1.99294114,   10.4629412,           0.
   1098,   2.49117637,   10.4629412,           0.
   1099,   2.98941183,   10.4629412,           0.
   1100,   3.48764706,   10.4629412,           0.
   1101,   3.98588228,   10.4629412,           0.
   1102,   4.48411751,   10.4629412,           0.
   1103,   4.98235273,   10.4629412,           0.
   1104,   5.48058844,   10.4629412,           0.
   1105,   5.97882366,   10.4629412,           0.
   1106,   6.47705889,   10.4629412,           0.
   1107,   6.97529411,   10.4629412,           0.
   1108,   7.47352934,   10.4629412,           0.
   1109,   7.97176456,   10.4629412,           0.
   1110,   8.47000027,   10.4629412,           0.
   1111,   8.96823502,   10.4629412,           0.
   1112,   9.46647072,   10.4629412,           0.
   1113,   9.96470547,   10.4629412,           0.
   1114,   10.4629412,   10.4629412,           0.
   1115,   10.9611769,   10.4629412,           0.
   1116,   11.4594116,   10.4629412,           0.
   1117,   11.9576473,   10.4629412,           0.
   1118,   12.4558821,   10.4629412,           0.
   1119,   12.9541178,   10.4629412,           0.
   1120,   13.4523525,   10.4629412,           0.
   1121,   13.9505882,   10.4629412,           0.
   1122,   14.4488239,   10.4629412,           0.
   1123,   14.9470587,   10.4629412,           0.
   1124,   15.4452944,   10.4629412,           0.
   1125,   15.9435291,   10.4629412,           0.
   1126,   16.4417648,   10.4629412,           0.
   1127,   16.9400005,   10.4629412,           0.
   1128,   17.4382362,   10.4629412,           0.
   1129,     17.93647,   10.4629412,           0.
   1130,   18.4347057,   10.4629412,           0.
   1131,   18.9329414,   10.4629412,           0.
   1132,   19.4311771,   10.4629412,           0.
   1133,   19.9294109,   10.4629412,           0.
   1134,   20.4276466,   10.4629412,           0.
   1135,   20.9258823,   10.4629412,           0.
   1136,    21.424118,   10.4629412,           0.
   1137,   21.9223537,   10.4629412,           0.
   1138,   22.4205875,   10.4629412,           0.
   1139,   22.9188232,   10.4629412,           0.
   1140,   23.4170589,   10.4629412,           0.
   1141,   23.9152946,   10.4629412,           0.
   1142,   24.4135303,   10.4629412,           0.
   1143,   24.9117641,   10.4629412,           0.
   1144,   25.4099998,   10.4629412,           0.
   1145,           0.,   10.9611769,           0.
   1146,  0.498235285,   10.9611769,           0.
   1147,  0.996470571,   10.9611769,           0.
   1148,   1.49470592,   10.9611769,           0.
   1149,   1.99294114,   10.9611769,           0.
   1150,   2.49117637,   10.9611769,           0.
   1151,   2.98941183,   10.9611769,           0.
   1152,   3.48764706,   10.9611769,           0.
   1153,   3.98588228,   10.9611769,           0.
   1154,   4.48411751,   10.9611769,           0.
   1155,   4.98235273,   10.9611769,           0.
   1156,   5.48058844,   10.9611769,           0.
   1157,   5.97882366,   10.9611769,           0.
   1158,   6.47705889,   10.9611769,           0.
   1159,   6.97529411,   10.9611769,           0.
   1160,   7.47352934,   10.9611769,           0.
   1161,   7.97176456,   10.9611769,           0.
   1162,   8.47000027,   10.9611769,           0.
   1163,   8.96823502,   10.9611769,           0.
   1164,   9.46647072,   10.9611769,           0.
   1165,   9.96470547,   10.9611769,           0.
   1166,   10.4629412,   10.9611769,           0.
   1167,   10.9611769,   10.9611769,           0.
   1168,   11.4594116,   10.9611769,           0.
   1169,   11.9576473,   10.9611769,           0.
   1170,   12.4558821,   10.9611769,           0.
   1171,   12.9541178,   10.9611769,           0.
   1172,   13.4523525,   10.9611769,           0.
   1173,   13.9505882,   10.9611769,           0.
   1174,   14.4488239,   10.9611769,           0.
   1175,   14.9470587,   10.9611769,           0.
   1176,   15.4452944,   10.9611769,           0.
   1177,   15.9435291,   10.9611769,           0.
   1178,   16.4417648,   10.9611769,           0.
   1179,   16.9400005,   10.9611769,           0.
   1180,   17.4382362,   10.9611769,           0.
   1181,     17.93647,   10.9611769,           0.
   1182,   18.4347057,   10.9611769,           0.
   1183,   18.9329414,   10.9611769,           0.
   1184,   19.4311771,   10.9611769,           0.
   1185,   19.9294109,   10.9611769,           0.
   1186,   20.4276466,   10.9611769,           0.
   1187,   20.9258823,   10.9611769,           0.
   1188,    21.424118,   10.9611769,           0.
   1189,   21.9223537,   10.9611769,           0.
   1190,   22.4205875,   10.9611769,           0.
   1191,   22.9188232,   10.9611769,           0.
   1192,   23.4170589,   10.9611769,           0.
   1193,   23.9152946,   10.9611769,           0.
   1194,   24.4135303,   10.9611769,           0.
   1195,   24.9117641,   10.9611769,           0.
   1196,   25.4099998,   10.9611769,           0.
   1197,           0.,   11.4594116,           0.
   1198,  0.498235285,   11.4594116,           0.
   1199,  0.996470571,   11.4594116,           0.
   1200,   1.49470592,   11.4594116,           0.
   1201,   1.99294114,   11.4594116,           0.
   1202,   2.49117637,   11.4594116,           0.
   1203,   2.98941183,   11.4594116,           0.
   1204,   3.48764706,   11.4594116,           0.
   1205,   3.98588228,   11.4594116,           0.
   1206,   4.48411751,   11.4594116,           0.
   1207,   4.98235273,   11.4594116,           0.
   1208,   5.48058844,   11.4594116,           0.
   1209,   5.97882366,   11.4594116,           0.
   1210,   6.47705889,   11.4594116,           0.
   1211,   6.97529411,   11.4594116,           0.
   1212,   7.47352934,   11.4594116,           0.
   1213,   7.97176456,   11.4594116,           0.
   1214,   8.47000027,   11.4594116,           0.
   1215,   8.96823502,   11.4594116,           0.
   1216,   9.46647072,   11.4594116,           0.
   1217,   9.96470547,   11.4594116,           0.
   1218,   10.4629412,   11.4594116,           0.
   1219,   10.9611769,   11.4594116,           0.
   1220,   11.4594116,   11.4594116,           0.
   1221,   11.9576473,   11.4594116,           0.
   1222,   12.4558821,   11.4594116,           0.
   1223,   12.9541178,   11.4594116,           0.
   1224,   13.4523525,   11.4594116,           0.
   1225,   13.9505882,   11.4594116,           0.
   1226,   14.4488239,   11.4594116,           0.
   1227,   14.9470587,   11.4594116,           0.
   1228,   15.4452944,   11.4594116,           0.
   1229,   15.9435291,   11.4594116,           0.
   1230,   16.4417648,   11.4594116,           0.
   1231,   16.9400005,   11.4594116,           0.
   1232,   17.4382362,   11.4594116,           0.
   1233,     17.93647,   11.4594116,           0.
   1234,   18.4347057,   11.4594116,           0.
   1235,   18.9329414,   11.4594116,           0.
   1236,   19.4311771,   11.4594116,           0.
   1237,   19.9294109,   11.4594116,           0.
   1238,   20.4276466,   11.4594116,           0.
   1239,   20.9258823,   11.4594116,           0.
   1240,    21.424118,   11.4594116,           0.
   1241,   21.9223537,   11.4594116,           0.
   1242,   22.4205875,   11.4594116,           0.
   1243,   22.9188232,   11.4594116,           0.
   1244,   23.4170589,   11.4594116,           0.
   1245,   23.9152946,   11.4594116,           0.
   1246,   24.4135303,   11.4594116,           0.
   1247,   24.9117641,   11.4594116,           0.
   1248,   25.4099998,   11.4594116,           0.
   1249,           0.,   11.9576473,           0.
   1250,  0.498235285,   11.9576473,           0.
   1251,  0.996470571,   11.9576473,           0.
   1252,   1.49470592,   11.9576473,           0.
   1253,   1.99294114,   11.9576473,           0.
   1254,   2.49117637,   11.9576473,           0.
   1255,   2.98941183,   11.9576473,           0.
   1256,   3.48764706,   11.9576473,           0.
   1257,   3.98588228,   11.9576473,           0.
   1258,   4.48411751,   11.9576473,           0.
   1259,   4.98235273,   11.9576473,           0.
   1260,   5.48058844,   11.9576473,           0.
   1261,   5.97882366,   11.9576473,           0.
   1262,   6.47705889,   11.9576473,           0.
   1263,   6.97529411,   11.9576473,           0.
   1264,   7.47352934,   11.9576473,           0.
   1265,   7.97176456,   11.9576473,           0.
   1266,   8.47000027,   11.9576473,           0.
   1267,   8.96823502,   11.9576473,           0.
   1268,   9.46647072,   11.9576473,           0.
   1269,   9.96470547,   11.9576473,           0.
   1270,   10.4629412,   11.9576473,           0.
   1271,   10.9611769,   11.9576473,           0.
   1272,   11.4594116,   11.9576473,           0.
   1273,   11.9576473,   11.9576473,           0.
   1274,   12.4558821,   11.9576473,           0.
   1275,   12.9541178,   11.9576473,           0.
   1276,   13.4523525,   11.9576473,           0.
   1277,   13.9505882,   11.9576473,           0.
   1278,   14.4488239,   11.9576473,           0.
   1279,   14.9470587,   11.9576473,           0.
   1280,   15.4452944,   11.9576473,           0.
   1281,   15.9435291,   11.9576473,           0.
   1282,   16.4417648,   11.9576473,           0.
   1283,   16.9400005,   11.9576473,           0.
   1284,   17.4382362,   11.9576473,           0.
   1285,     17.93647,   11.9576473,           0.
   1286,   18.4347057,   11.9576473,           0.
   1287,   18.9329414,   11.9576473,           0.
   1288,   19.4311771,   11.9576473,           0.
   1289,   19.9294109,   11.9576473,           0.
   1290,   20.4276466,   11.9576473,           0.
   1291,   20.9258823,   11.9576473,           0.
   1292,    21.424118,   11.9576473,           0.
   1293,   21.9223537,   11.9576473,           0.
   1294,   22.4205875,   11.9576473,           0.
   1295,   22.9188232,   11.9576473,           0.
   1296,   23.4170589,   11.9576473,           0.
   1297,   23.9152946,   11.9576473,           0.
   1298,   24.4135303,   11.9576473,           0.
   1299,   24.9117641,   11.9576473,           0.
   1300,   25.4099998,   11.9576473,           0.
   1301,           0.,   12.4558821,           0.
   1302,  0.498235285,   12.4558821,           0.
   1303,  0.996470571,   12.4558821,           0.
   1304,   1.49470592,   12.4558821,           0.
   1305,   1.99294114,   12.4558821,           0.
   1306,   2.49117637,   12.4558821,           0.
   1307,   2.98941183,   12.4558821,           0.
   1308,   3.48764706,   12.4558821,           0.
   1309,   3.98588228,   12.4558821,           0.
   1310,   4.48411751,   12.4558821,           0.
   1311,   4.98235273,   12.4558821,           0.
   1312,   5.48058844,   12.4558821,           0.
   1313,   5.97882366,   12.4558821,           0.
   1314,   6.47705889,   12.4558821,           0.
   1315,   6.97529411,   12.4558821,           0.
   1316,   7.47352934,   12.4558821,           0.
   1317,   7.97176456,   12.4558821,           0.
   1318,   8.47000027,   12.4558821,           0.
   1319,   8.96823502,   12.4558821,           0.
   1320,   9.46647072,   12.4558821,           0.
   1321,   9.96470547,   12.4558821,           0.
   1322,   10.4629412,   12.4558821,           0.
   1323,   10.9611769,   12.4558821,           0.
   1324,   11.4594116,   12.4558821,           0.
   1325,   11.9576473,   12.4558821,           0.
   1326,   12.4558821,   12.4558821,           0.
   1327,   12.9541178,   12.4558821,           0.
   1328,   13.4523525,   12.4558821,           0.
   1329,   13.9505882,   12.4558821,           0.
   1330,   14.4488239,   12.4558821,           0.
   1331,   14.9470587,   12.4558821,           0.
   1332,   15.4452944,   12.4558821,           0.
   1333,   15.9435291,   12.4558821,           0.
   1334,   16.4417648,   12.4558821,           0.
   1335,   16.9400005,   12.4558821,           0.
   1336,   17.4382362,   12.4558821,           0.
   1337,     17.93647,   12.4558821,           0.
   1338,   18.4347057,   12.4558821,           0.
   1339,   18.9329414,   12.4558821,           0.
   1340,   19.4311771,   12.4558821,           0.
   1341,   19.9294109,   12.4558821,           0.
   1342,   20.4276466,   12.4558821,           0.
   1343,   20.9258823,   12.4558821,           0.
   1344,    21.424118,   12.4558821,           0.
   1345,   21.9223537,   12.4558821,           0.
   1346,   22.4205875,   12.4558821,           0.
   1347,   22.9188232,   12.4558821,           0.
   1348,   23.4170589,   12.4558821,           0.
   1349,   23.9152946,   12.4558821,           0.
   1350,   24.4135303,   12.4558821,           0.
   1351,   24.9117641,   12.4558821,           0.
   1352,   25.4099998,   12.4558821,           0.
   1353,           0.,   12.9541178,           0.
   1354,  0.498235285,   12.9541178,           0.
   1355,  0.996470571,   12.9541178,           0.
   1356,   1.49470592,   12.9541178,           0.
   1357,   1.99294114,   12.9541178,           0.
   1358,   2.49117637,   12.9541178,           0.
   1359,   2.98941183,   12.9541178,           0.
   1360,   3.48764706,   12.9541178,           0.
   1361,   3.98588228,   12.9541178,           0.
   1362,   4.48411751,   12.9541178,           0.
   1363,   4.98235273,   12.9541178,           0.
   1364,   5.48058844,   12.9541178,           0.
   1365,   5.97882366,   12.9541178,           0.
   1366,   6.47705889,   12.9541178,           0.
   1367,   6.97529411,   12.9541178,           0.
   1368,   7.47352934,   12.9541178,           0.
   1369,   7.97176456,   12.9541178,           0.
   1370,   8.47000027,   12.9541178,           0.
   1371,   8.96823502,   12.9541178,           0.
   1372,   9.46647072,   12.9541178,           0.
   1373,   9.96470547,   12.9541178,           0.
   1374,   10.4629412,   12.9541178,           0.
   1375,   10.9611769,   12.9541178,           0.
   1376,   11.4594116,   12.9541178,           0.
   1377,   11.9576473,   12.9541178,           0.
   1378,   12.4558821,   12.9541178,           0.
   1379,   12.9541178,   12.9541178,           0.
   1380,   13.4523525,   12.9541178,           0.
   1381,   13.9505882,   12.9541178,           0.
   1382,   14.4488239,   12.9541178,           0.
   1383,   14.9470587,   12.9541178,           0.
   1384,   15.4452944,   12.9541178,           0.
   1385,   15.9435291,   12.9541178,           0.
   1386,   16.4417648,   12.9541178,           0.
   1387,   16.9400005,   12.9541178,           0.
   1388,   17.4382362,   12.9541178,           0.
   1389,     17.93647,   12.9541178,           0.
   1390,   18.4347057,   12.9541178,           0.
   1391,   18.9329414,   12.9541178,           0.
   1392,   19.4311771,   12.9541178,           0.
   1393,   19.9294109,   12.9541178,           0.
   1394,   20.4276466,   12.9541178,           0.
   1395,   20.9258823,   12.9541178,           0.
   1396,    21.424118,   12.9541178,           0.
   1397,   21.9223537,   12.9541178,           0.
   1398,   22.4205875,   12.9541178,           0.
   1399,   22.9188232,   12.9541178,           0.
   1400,   23.4170589,   12.9541178,           0.
   1401,   23.9152946,   12.9541178,           0.
   1402,   24.4135303,   12.9541178,           0.
   1403,   24.9117641,   12.9541178,           0.
   1404,   25.4099998,   12.9541178,           0.
   1405,           0.,   13.4523525,           0.
   1406,  0.498235285,   13.4523525,           0.
   1407,  0.996470571,   13.4523525,           0.
   1408,   1.49470592,   13.4523525,           0.
   1409,   1.99294114,   13.4523525,           0.
   1410,   2.49117637,   13.4523525,           0.
   1411,   2.98941183,   13.4523525,           0.
   1412,   3.48764706,   13.4523525,           0.
   1413,   3.98588228,   13.4523525,           0.
   1414,   4.48411751,   13.4523525,           0.
   1415,   4.98235273,   13.4523525,           0.
   1416,   5.48058844,   13.4523525,           0.
   1417,   5.97882366,   13.4523525,           0.
   1418,   6.47705889,   13.4523525,           0.
   1419,   6.97529411,   13.4523525,           0.
   1420,   7.47352934,   13.4523525,           0.
   1421,   7.97176456,   13.4523525,           0.
   1422,   8.47000027,   13.4523525,           0.
   1423,   8.96823502,   13.4523525,           0.
   1424,   9.46647072,   13.4523525,           0.
   1425,   9.96470547,   13.4523525,           0.
   1426,   10.4629412,   13.4523525,           0.
   1427,   10.9611769,   13.4523525,           0.
   1428,   11.4594116,   13.4523525,           0.
   1429,   11.9576473,   13.4523525,           0.
   1430,   12.4558821,   13.4523525,           0.
   1431,   12.9541178,   13.4523525,           0.
   1432,   13.4523525,   13.4523525,           0.
   1433,   13.9505882,   13.4523525,           0.
   1434,   14.4488239,   13.4523525,           0.
   1435,   14.9470587,   13.4523525,           0.
   1436,   15.4452944,   13.4523525,           0.
   1437,   15.9435291,   13.4523525,           0.
   1438,   16.4417648,   13.4523525,           0.
   1439,   16.9400005,   13.4523525,           0.
   1440,   17.4382362,   13.4523525,           0.
   1441,     17.93647,   13.4523525,           0.
   1442,   18.4347057,   13.4523525,           0.
   1443,   18.9329414,   13.4523525,           0.
   1444,   19.4311771,   13.4523525,           0.
   1445,   19.9294109,   13.4523525,           0.
   1446,   20.4276466,   13.4523525,           0.
   1447,   20.9258823,   13.4523525,           0.
   1448,    21.424118,   13.4523525,           0.
   1449,   21.9223537,   13.4523525,           0.
   1450,   22.4205875,   13.4523525,           0.
   1451,   22.9188232,   13.4523525,           0.
   1452,   23.4170589,   13.4523525,           0.
   1453,   23.9152946,   13.4523525,           0.
   1454,   24.4135303,   13.4523525,           0.
   1455,   24.9117641,   13.4523525,           0.
   1456,   25.4099998,   13.4523525,           0.
   1457,           0.,   13.9505882,           0.
   1458,  0.498235285,   13.9505882,           0.
   1459,  0.996470571,   13.9505882,           0.
   1460,   1.49470592,   13.9505882,           0.
   1461,   1.99294114,   13.9505882,           0.
   1462,   2.49117637,   13.9505882,           0.
   1463,   2.98941183,   13.9505882,           0.
   1464,   3.48764706,   13.9505882,           0.
   1465,   3.98588228,   13.9505882,           0.
   1466,   4.48411751,   13.9505882,           0.
   1467,   4.98235273,   13.9505882,           0.
   1468,   5.48058844,   13.9505882,           0.
   1469,   5.97882366,   13.9505882,           0.
   1470,   6.47705889,   13.9505882,           0.
   1471,   6.97529411,   13.9505882,           0.
   1472,   7.47352934,   13.9505882,           0.
   1473,   7.97176456,   13.9505882,           0.
   1474,   8.47000027,   13.9505882,           0.
   1475,   8.96823502,   13.9505882,           0.
   1476,   9.46647072,   13.9505882,           0.
   1477,   9.96470547,   13.9505882,           0.
   1478,   10.4629412,   13.9505882,           0.
   1479,   10.9611769,   13.9505882,           0.
   1480,   11.4594116,   13.9505882,           0.
   1481,   11.9576473,   13.9505882,           0.
   1482,   12.4558821,   13.9505882,           0.
   1483,   12.9541178,   13.9505882,           0.
   1484,   13.4523525,   13.9505882,           0.
   1485,   13.9505882,   13.9505882,           0.
   1486,   14.4488239,   13.9505882,           0.
   1487,   14.9470587,   13.9505882,           0.
   1488,   15.4452944,   13.9505882,           0.
   1489,   15.9435291,   13.9505882,           0.
   1490,   16.4417648,   13.9505882,           0.
   1491,   16.9400005,   13.9505882,           0.
   1492,   17.4382362,   13.9505882,           0.
   1493,     17.93647,   13.9505882,           0.
   1494,   18.4347057,   13.9505882,           0.
   1495,   18.9329414,   13.9505882,           0.
   1496,   19.4311771,   13.9505882,           0.
   1497,   19.9294109,   13.9505882,           0.
   1498,   20.4276466,   13.9505882,           0.
   1499,   20.9258823,   13.9505882,           0.
   1500,    21.424118,   13.9505882,           0.
   1501,   21.9223537,   13.9505882,           0.
   1502,   22.4205875,   13.9505882,           0.
   1503,   22.9188232,   13.9505882,           0.
   1504,   23.4170589,   13.9505882,           0.
   1505,   23.9152946,   13.9505882,           0.
   1506,   24.4135303,   13.9505882,           0.
   1507,   24.9117641,   13.9505882,           0.
   1508,   25.4099998,   13.9505882,           0.
   1509,           0.,   14.4488239,           0.
   1510,  0.498235285,   14.4488239,           0.
   1511,  0.996470571,   14.4488239,           0.
   1512,   1.49470592,   14.4488239,           0.
   1513,   1.99294114,   14.4488239,           0.
   1514,   2.49117637,   14.4488239,           0.
   1515,   2.98941183,   14.4488239,           0.
   1516,   3.48764706,   14.4488239,           0.
   1517,   3.98588228,   14.4488239,           0.
   1518,   4.48411751,   14.4488239,           0.
   1519,   4.98235273,   14.4488239,           0.
   1520,   5.48058844,   14.4488239,           0.
   1521,   5.97882366,   14.4488239,           0.
   1522,   6.47705889,   14.4488239,           0.
   1523,   6.97529411,   14.4488239,           0.
   1524,   7.47352934,   14.4488239,           0.
   1525,   7.97176456,   14.4488239,           0.
   1526,   8.47000027,   14.4488239,           0.
   1527,   8.96823502,   14.4488239,           0.
   1528,   9.46647072,   14.4488239,           0.
   1529,   9.96470547,   14.4488239,           0.
   1530,   10.4629412,   14.4488239,           0.
   1531,   10.9611769,   14.4488239,           0.
   1532,   11.4594116,   14.4488239,           0.
   1533,   11.9576473,   14.4488239,           0.
   1534,   12.4558821,   14.4488239,           0.
   1535,   12.9541178,   14.4488239,           0.
   1536,   13.4523525,   14.4488239,           0.
   1537,   13.9505882,   14.4488239,           0.
   1538,   14.4488239,   14.4488239,           0.
   1539,   14.9470587,   14.4488239,           0.
   1540,   15.4452944,   14.4488239,           0.
   1541,   15.9435291,   14.4488239,           0.
   1542,   16.4417648,   14.4488239,           0.
   1543,   16.9400005,   14.4488239,           0.
   1544,   17.4382362,   14.4488239,           0.
   1545,     17.93647,   14.4488239,           0.
   1546,   18.4347057,   14.4488239,           0.
   1547,   18.9329414,   14.4488239,           0.
   1548,   19.4311771,   14.4488239,           0.
   1549,   19.9294109,   14.4488239,           0.
   1550,   20.4276466,   14.4488239,           0.
   1551,   20.9258823,   14.4488239,           0.
   1552,    21.424118,   14.4488239,           0.
   1553,   21.9223537,   14.4488239,           0.
   1554,   22.4205875,   14.4488239,           0.
   1555,   22.9188232,   14.4488239,           0.
   1556,   23.4170589,   14.4488239,           0.
   1557,   23.9152946,   14.4488239,           0.
   1558,   24.4135303,   14.4488239,           0.
   1559,   24.9117641,   14.4488239,           0.
   1560,   25.4099998,   14.4488239,           0.
   1561,           0.,   14.9470587,           0.
   1562,  0.498235285,   14.9470587,           0.
   1563,  0.996470571,   14.9470587,           0.
   1564,   1.49470592,   14.9470587,           0.
   1565,   1.99294114,   14.9470587,           0.
   1566,   2.49117637,   14.9470587,           0.
   1567,   2.98941183,   14.9470587,           0.
   1568,   3.48764706,   14.9470587,           0.
   1569,   3.98588228,   14.9470587,           0.
   1570,   4.48411751,   14.9470587,           0.
   1571,   4.98235273,   14.9470587,           0.
   1572,   5.48058844,   14.9470587,           0.
   1573,   5.97882366,   14.9470587,           0.
   1574,   6.47705889,   14.9470587,           0.
   1575,   6.97529411,   14.9470587,           0.
   1576,   7.47352934,   14.9470587,           0.
   1577,   7.97176456,   14.9470587,           0.
   1578,   8.47000027,   14.9470587,           0.
   1579,   8.96823502,   14.9470587,           0.
   1580,   9.46647072,   14.9470587,           0.
   1581,   9.96470547,   14.9470587,           0.
   1582,   10.4629412,   14.9470587,           0.
   1583,   10.9611769,   14.9470587,           0.
   1584,   11.4594116,   14.9470587,           0.
   1585,   11.9576473,   14.9470587,           0.
   1586,   12.4558821,   14.9470587,           0.
   1587,   12.9541178,   14.9470587,           0.
   1588,   13.4523525,   14.9470587,           0.
   1589,   13.9505882,   14.9470587,           0.
   1590,   14.4488239,   14.9470587,           0.
   1591,   14.9470587,   14.9470587,           0.
   1592,   15.4452944,   14.9470587,           0.
   1593,   15.9435291,   14.9470587,           0.
   1594,   16.4417648,   14.9470587,           0.
   1595,   16.9400005,   14.9470587,           0.
   1596,   17.4382362,   14.9470587,           0.
   1597,     17.93647,   14.9470587,           0.
   1598,   18.4347057,   14.9470587,           0.
   1599,   18.9329414,   14.9470587,           0.
   1600,   19.4311771,   14.9470587,           0.
   1601,   19.9294109,   14.9470587,           0.
   1602,   20.4276466,   14.9470587,           0.
   1603,   20.9258823,   14.9470587,           0.
   1604,    21.424118,   14.9470587,           0.
   1605,   21.9223537,   14.9470587,           0.
   1606,   22.4205875,   14.9470587,           0.
   1607,   22.9188232,   14.9470587,           0.
   1608,   23.4170589,   14.9470587,           0.
   1609,   23.9152946,   14.9470587,           0.
   1610,   24.4135303,   14.9470587,           0.
   1611,   24.9117641,   14.9470587,           0.
   1612,   25.4099998,   14.9470587,           0.
   1613,           0.,   15.4452944,           0.
   1614,  0.498235285,   15.4452944,           0.
   1615,  0.996470571,   15.4452944,           0.
   1616,   1.49470592,   15.4452944,           0.
   1617,   1.99294114,   15.4452944,           0.
   1618,   2.49117637,   15.4452944,           0.
   1619,   2.98941183,   15.4452944,           0.
   1620,   3.48764706,   15.4452944,           0.
   1621,   3.98588228,   15.4452944,           0.
   1622,   4.48411751,   15.4452944,           0.
   1623,   4.98235273,   15.4452944,           0.
   1624,   5.48058844,   15.4452944,           0.
   1625,   5.97882366,   15.4452944,           0.
   1626,   6.47705889,   15.4452944,           0.
   1627,   6.97529411,   15.4452944,           0.
   1628,   7.47352934,   15.4452944,           0.
   1629,   7.97176456,   15.4452944,           0.
   1630,   8.47000027,   15.4452944,           0.
   1631,   8.96823502,   15.4452944,           0.
   1632,   9.46647072,   15.4452944,           0.
   1633,   9.96470547,   15.4452944,           0.
   1634,   10.4629412,   15.4452944,           0.
   1635,   10.9611769,   15.4452944,           0.
   1636,   11.4594116,   15.4452944,           0.
   1637,   11.9576473,   15.4452944,           0.
   1638,   12.4558821,   15.4452944,           0.
   1639,   12.9541178,   15.4452944,           0.
   1640,   13.4523525,   15.4452944,           0.
   1641,   13.9505882,   15.4452944,           0.
   1642,   14.4488239,   15.4452944,           0.
   1643,   14.9470587,   15.4452944,           0.
   1644,   15.4452944,   15.4452944,           0.
   1645,   15.9435291,   15.4452944,           0.
   1646,   16.4417648,   15.4452944,           0.
   1647,   16.9400005,   15.4452944,           0.
   1648,   17.4382362,   15.4452944,           0.
   1649,     17.93647,   15.4452944,           0.
   1650,   18.4347057,   15.4452944,           0.
   1651,   18.9329414,   15.4452944,           0.
   1652,   19.4311771,   15.4452944,           0.
   1653,   19.9294109,   15.4452944,           0.
   1654,   20.4276466,   15.4452944,           0.
   1655,   20.9258823,   15.4452944,           0.
   1656,    21.424118,   15.4452944,           0.
   1657,   21.9223537,   15.4452944,           0.
   1658,   22.4205875,   15.4452944,           0.
   1659,   22.9188232,   15.4452944,           0.
   1660,   23.4170589,   15.4452944,           0.
   1661,   23.9152946,   15.4452944,           0.
   1662,   24.4135303,   15.4452944,           0.
   1663,   24.9117641,   15.4452944,           0.
   1664,   25.4099998,   15.4452944,           0.
   1665,           0.,   15.9435291,           0.
   1666,  0.498235285,   15.9435291,           0.
   1667,  0.996470571,   15.9435291,           0.
   1668,   1.49470592,   15.9435291,           0.
   1669,   1.99294114,   15.9435291,           0.
   1670,   2.49117637,   15.9435291,           0.
   1671,   2.98941183,   15.9435291,           0.
   1672,   3.48764706,   15.9435291,           0.
   1673,   3.98588228,   15.9435291,           0.
   1674,   4.48411751,   15.9435291,           0.
   1675,   4.98235273,   15.9435291,           0.
   1676,   5.48058844,   15.9435291,           0.
   1677,   5.97882366,   15.9435291,           0.
   1678,   6.47705889,   15.9435291,           0.
   1679,   6.97529411,   15.9435291,           0.
   1680,   7.47352934,   15.9435291,           0.
   1681,   7.97176456,   15.9435291,           0.
   1682,   8.47000027,   15.9435291,           0.
   1683,   8.96823502,   15.9435291,           0.
   1684,   9.46647072,   15.9435291,           0.
   1685,   9.96470547,   15.9435291,           0.
   1686,   10.4629412,   15.9435291,           0.
   1687,   10.9611769,   15.9435291,           0.
   1688,   11.4594116,   15.9435291,           0.
   1689,   11.9576473,   15.9435291,           0.
   1690,   12.4558821,   15.9435291,           0.
   1691,   12.9541178,   15.9435291,           0.
   1692,   13.4523525,   15.9435291,           0.
   1693,   13.9505882,   15.9435291,           0.
   1694,   14.4488239,   15.9435291,           0.
   1695,   14.9470587,   15.9435291,           0.
   1696,   15.4452944,   15.9435291,           0.
   1697,   15.9435291,   15.9435291,           0.
   1698,   16.4417648,   15.9435291,           0.
   1699,   16.9400005,   15.9435291,           0.
   1700,   17.4382362,   15.9435291,           0.
   1701,     17.93647,   15.9435291,           0.
   1702,   18.4347057,   15.9435291,           0.
   1703,   18.9329414,   15.9435291,           0.
   1704,   19.4311771,   15.9435291,           0.
   1705,   19.9294109,   15.9435291,           0.
   1706,   20.4276466,   15.9435291,           0.
   1707,   20.9258823,   15.9435291,           0.
   1708,    21.424118,   15.9435291,           0.
   1709,   21.9223537,   15.9435291,           0.
   1710,   22.4205875,   15.9435291,           0.
   1711,   22.9188232,   15.9435291,           0.
   1712,   23.4170589,   15.9435291,           0.
   1713,   23.9152946,   15.9435291,           0.
   1714,   24.4135303,   15.9435291,           0.
   1715,   24.9117641,   15.9435291,           0.
   1716,   25.4099998,   15.9435291,           0.
   1717,           0.,   16.4417648,           0.
   1718,  0.498235285,   16.4417648,           0.
   1719,  0.996470571,   16.4417648,           0.
   1720,   1.49470592,   16.4417648,           0.
   1721,   1.99294114,   16.4417648,           0.
   1722,   2.49117637,   16.4417648,           0.
   1723,   2.98941183,   16.4417648,           0.
   1724,   3.48764706,   16.4417648,           0.
   1725,   3.98588228,   16.4417648,           0.
   1726,   4.48411751,   16.4417648,           0.
   1727,   4.98235273,   16.4417648,           0.
   1728,   5.48058844,   16.4417648,           0.
   1729,   5.97882366,   16.4417648,           0.
   1730,   6.47705889,   16.4417648,           0.
   1731,   6.97529411,   16.4417648,           0.
   1732,   7.47352934,   16.4417648,           0.
   1733,   7.97176456,   16.4417648,           0.
   1734,   8.47000027,   16.4417648,           0.
   1735,   8.96823502,   16.4417648,           0.
   1736,   9.46647072,   16.4417648,           0.
   1737,   9.96470547,   16.4417648,           0.
   1738,   10.4629412,   16.4417648,           0.
   1739,   10.9611769,   16.4417648,           0.
   1740,   11.4594116,   16.4417648,           0.
   1741,   11.9576473,   16.4417648,           0.
   1742,   12.4558821,   16.4417648,           0.
   1743,   12.9541178,   16.4417648,           0.
   1744,   13.4523525,   16.4417648,           0.
   1745,   13.9505882,   16.4417648,           0.
   1746,   14.4488239,   16.4417648,           0.
   1747,   14.9470587,   16.4417648,           0.
   1748,   15.4452944,   16.4417648,           0.
   1749,   15.9435291,   16.4417648,           0.
   1750,   16.4417648,   16.4417648,           0.
   1751,   16.9400005,   16.4417648,           0.
   1752,   17.4382362,   16.4417648,           0.
   1753,     17.93647,   16.4417648,           0.
   1754,   18.4347057,   16.4417648,           0.
   1755,   18.9329414,   16.4417648,           0.
   1756,   19.4311771,   16.4417648,           0.
   1757,   19.9294109,   16.4417648,           0.
   1758,   20.4276466,   16.4417648,           0.
   1759,   20.9258823,   16.4417648,           0.
   1760,    21.424118,   16.4417648,           0.
   1761,   21.9223537,   16.4417648,           0.
   1762,   22.4205875,   16.4417648,           0.
   1763,   22.9188232,   16.4417648,           0.
   1764,   23.4170589,   16.4417648,           0.
   1765,   23.9152946,   16.4417648,           0.
   1766,   24.4135303,   16.4417648,           0.
   1767,   24.9117641,   16.4417648,           0.
   1768,   25.4099998,   16.4417648,           0.
   1769,           0.,   16.9400005,           0.
   1770,  0.498235285,   16.9400005,           0.
   1771,  0.996470571,   16.9400005,           0.
   1772,   1.49470592,   16.9400005,           0.
   1773,   1.99294114,   16.9400005,           0.
   1774,   2.49117637,   16.9400005,           0.
   1775,   2.98941183,   16.9400005,           0.
   1776,   3.48764706,   16.9400005,           0.
   1777,   3.98588228,   16.9400005,           0.
   1778,   4.48411751,   16.9400005,           0.
   1779,   4.98235273,   16.9400005,           0.
   1780,   5.48058844,   16.9400005,           0.
   1781,   5.97882366,   16.9400005,           0.
   1782,   6.47705889,   16.9400005,           0.
   1783,   6.97529411,   16.9400005,           0.
   1784,   7.47352934,   16.9400005,           0.
   1785,   7.97176456,   16.9400005,           0.
   1786,   8.47000027,   16.9400005,           0.
   1787,   8.96823502,   16.9400005,           0.
   1788,   9.46647072,   16.9400005,           0.
   1789,   9.96470547,   16.9400005,           0.
   1790,   10.4629412,   16.9400005,           0.
   1791,   10.9611769,   16.9400005,           0.
   1792,   11.4594116,   16.9400005,           0.
   1793,   11.9576473,   16.9400005,           0.
   1794,   12.4558821,   16.9400005,           0.
   1795,   12.9541178,   16.9400005,           0.
   1796,   13.4523525,   16.9400005,           0.
   1797,   13.9505882,   16.9400005,           0.
   1798,   14.4488239,   16.9400005,           0.
   1799,   14.9470587,   16.9400005,           0.
   1800,   15.4452944,   16.9400005,           0.
   1801,   15.9435291,   16.9400005,           0.
   1802,   16.4417648,   16.9400005,           0.
   1803,   16.9400005,   16.9400005,           0.
   1804,   17.4382362,   16.9400005,           0.
   1805,     17.93647,   16.9400005,           0.
   1806,   18.4347057,   16.9400005,           0.
   1807,   18.9329414,   16.9400005,           0.
   1808,   19.4311771,   16.9400005,           0.
   1809,   19.9294109,   16.9400005,           0.
   1810,   20.4276466,   16.9400005,           0.
   1811,   20.9258823,   16.9400005,           0.
   1812,    21.424118,   16.9400005,           0.
   1813,   21.9223537,   16.9400005,           0.
   1814,   22.4205875,   16.9400005,           0.
   1815,   22.9188232,   16.9400005,           0.
   1816,   23.4170589,   16.9400005,           0.
   1817,   23.9152946,   16.9400005,           0.
   1818,   24.4135303,   16.9400005,           0.
   1819,   24.9117641,   16.9400005,           0.
   1820,   25.4099998,   16.9400005,           0.
   1821,           0.,   17.4382362,           0.
   1822,  0.498235285,   17.4382362,           0.
   1823,  0.996470571,   17.4382362,           0.
   1824,   1.49470592,   17.4382362,           0.
   1825,   1.99294114,   17.4382362,           0.
   1826,   2.49117637,   17.4382362,           0.
   1827,   2.98941183,   17.4382362,           0.
   1828,   3.48764706,   17.4382362,           0.
   1829,   3.98588228,   17.4382362,           0.
   1830,   4.48411751,   17.4382362,           0.
   1831,   4.98235273,   17.4382362,           0.
   1832,   5.48058844,   17.4382362,           0.
   1833,   5.97882366,   17.4382362,           0.
   1834,   6.47705889,   17.4382362,           0.
   1835,   6.97529411,   17.4382362,           0.
   1836,   7.47352934,   17.4382362,           0.
   1837,   7.97176456,   17.4382362,           0.
   1838,   8.47000027,   17.4382362,           0.
   1839,   8.96823502,   17.4382362,           0.
   1840,   9.46647072,   17.4382362,           0.
   1841,   9.96470547,   17.4382362,           0.
   1842,   10.4629412,   17.4382362,           0.
   1843,   10.9611769,   17.4382362,           0.
   1844,   11.4594116,   17.4382362,           0.
   1845,   11.9576473,   17.4382362,           0.
   1846,   12.4558821,   17.4382362,           0.
   1847,   12.9541178,   17.4382362,           0.
   1848,   13.4523525,   17.4382362,           0.
   1849,   13.9505882,   17.4382362,           0.
   1850,   14.4488239,   17.4382362,           0.
   1851,   14.9470587,   17.4382362,           0.
   1852,   15.4452944,   17.4382362,           0.
   1853,   15.9435291,   17.4382362,           0.
   1854,   16.4417648,   17.4382362,           0.
   1855,   16.9400005,   17.4382362,           0.
   1856,   17.4382362,   17.4382362,           0.
   1857,     17.93647,   17.4382362,           0.
   1858,   18.4347057,   17.4382362,           0.
   1859,   18.9329414,   17.4382362,           0.
   1860,   19.4311771,   17.4382362,           0.
   1861,   19.9294109,   17.4382362,           0.
   1862,   20.4276466,   17.4382362,           0.
   1863,   20.9258823,   17.4382362,           0.
   1864,    21.424118,   17.4382362,           0.
   1865,   21.9223537,   17.4382362,           0.
   1866,   22.4205875,   17.4382362,           0.
   1867,   22.9188232,   17.4382362,           0.
   1868,   23.4170589,   17.4382362,           0.
   1869,   23.9152946,   17.4382362,           0.
   1870,   24.4135303,   17.4382362,           0.
   1871,   24.9117641,   17.4382362,           0.
   1872,   25.4099998,   17.4382362,           0.
   1873,           0.,     17.93647,           0.
   1874,  0.498235285,     17.93647,           0.
   1875,  0.996470571,     17.93647,           0.
   1876,   1.49470592,     17.93647,           0.
   1877,   1.99294114,     17.93647,           0.
   1878,   2.49117637,     17.93647,           0.
   1879,   2.98941183,     17.93647,           0.
   1880,   3.48764706,     17.93647,           0.
   1881,   3.98588228,     17.93647,           0.
   1882,   4.48411751,     17.93647,           0.
   1883,   4.98235273,     17.93647,           0.
   1884,   5.48058844,     17.93647,           0.
   1885,   5.97882366,     17.93647,           0.
   1886,   6.47705889,     17.93647,           0.
   1887,   6.97529411,     17.93647,           0.
   1888,   7.47352934,     17.93647,           0.
   1889,   7.97176456,     17.93647,           0.
   1890,   8.47000027,     17.93647,           0.
   1891,   8.96823502,     17.93647,           0.
   1892,   9.46647072,     17.93647,           0.
   1893,   9.96470547,     17.93647,           0.
   1894,   10.4629412,     17.93647,           0.
   1895,   10.9611769,     17.93647,           0.
   1896,   11.4594116,     17.93647,           0.
   1897,   11.9576473,     17.93647,           0.
   1898,   12.4558821,     17.93647,           0.
   1899,   12.9541178,     17.93647,           0.
   1900,   13.4523525,     17.93647,           0.
   1901,   13.9505882,     17.93647,           0.
   1902,   14.4488239,     17.93647,           0.
   1903,   14.9470587,     17.93647,           0.
   1904,   15.4452944,     17.93647,           0.
   1905,   15.9435291,     17.93647,           0.
   1906,   16.4417648,     17.93647,           0.
   1907,   16.9400005,     17.93647,           0.
   1908,   17.4382362,     17.93647,           0.
   1909,     17.93647,     17.93647,           0.
   1910,   18.4347057,     17.93647,           0.
   1911,   18.9329414,     17.93647,           0.
   1912,   19.4311771,     17.93647,           0.
   1913,   19.9294109,     17.93647,           0.
   1914,   20.4276466,     17.93647,           0.
   1915,   20.9258823,     17.93647,           0.
   1916,    21.424118,     17.93647,           0.
   1917,   21.9223537,     17.93647,           0.
   1918,   22.4205875,     17.93647,           0.
   1919,   22.9188232,     17.93647,           0.
   1920,   23.4170589,     17.93647,           0.
   1921,   23.9152946,     17.93647,           0.
   1922,   24.4135303,     17.93647,           0.
   1923,   24.9117641,     17.93647,           0.
   1924,   25.4099998,     17.93647,           0.
   1925,           0.,   18.4347057,           0.
   1926,  0.498235285,   18.4347057,           0.
   1927,  0.996470571,   18.4347057,           0.
   1928,   1.49470592,   18.4347057,           0.
   1929,   1.99294114,   18.4347057,           0.
   1930,   2.49117637,   18.4347057,           0.
   1931,   2.98941183,   18.4347057,           0.
   1932,   3.48764706,   18.4347057,           0.
   1933,   3.98588228,   18.4347057,           0.
   1934,   4.48411751,   18.4347057,           0.
   1935,   4.98235273,   18.4347057,           0.
   1936,   5.48058844,   18.4347057,           0.
   1937,   5.97882366,   18.4347057,           0.
   1938,   6.47705889,   18.4347057,           0.
   1939,   6.97529411,   18.4347057,           0.
   1940,   7.47352934,   18.4347057,           0.
   1941,   7.97176456,   18.4347057,           0.
   1942,   8.47000027,   18.4347057,           0.
   1943,   8.96823502,   18.4347057,           0.
   1944,   9.46647072,   18.4347057,           0.
   1945,   9.96470547,   18.4347057,           0.
   1946,   10.4629412,   18.4347057,           0.
   1947,   10.9611769,   18.4347057,           0.
   1948,   11.4594116,   18.4347057,           0.
   1949,   11.9576473,   18.4347057,           0.
   1950,   12.4558821,   18.4347057,           0.
   1951,   12.9541178,   18.4347057,           0.
   1952,   13.4523525,   18.4347057,           0.
   1953,   13.9505882,   18.4347057,           0.
   1954,   14.4488239,   18.4347057,           0.
   1955,   14.9470587,   18.4347057,           0.
   1956,   15.4452944,   18.4347057,           0.
   1957,   15.9435291,   18.4347057,           0.
   1958,   16.4417648,   18.4347057,           0.
   1959,   16.9400005,   18.4347057,           0.
   1960,   17.4382362,   18.4347057,           0.
   1961,     17.93647,   18.4347057,           0.
   1962,   18.4347057,   18.4347057,           0.
   1963,   18.9329414,   18.4347057,           0.
   1964,   19.4311771,   18.4347057,           0.
   1965,   19.9294109,   18.4347057,           0.
   1966,   20.4276466,   18.4347057,           0.
   1967,   20.9258823,   18.4347057,           0.
   1968,    21.424118,   18.4347057,           0.
   1969,   21.9223537,   18.4347057,           0.
   1970,   22.4205875,   18.4347057,           0.
   1971,   22.9188232,   18.4347057,           0.
   1972,   23.4170589,   18.4347057,           0.
   1973,   23.9152946,   18.4347057,           0.
   1974,   24.4135303,   18.4347057,           0.
   1975,   24.9117641,   18.4347057,           0.
   1976,   25.4099998,   18.4347057,           0.
   1977,           0.,   18.9329414,           0.
   1978,  0.498235285,   18.9329414,           0.
   1979,  0.996470571,   18.9329414,           0.
   1980,   1.49470592,   18.9329414,           0.
   1981,   1.99294114,   18.9329414,           0.
   1982,   2.49117637,   18.9329414,           0.
   1983,   2.98941183,   18.9329414,           0.
   1984,   3.48764706,   18.9329414,           0.
   1985,   3.98588228,   18.9329414,           0.
   1986,   4.48411751,   18.9329414,           0.
   1987,   4.98235273,   18.9329414,           0.
   1988,   5.48058844,   18.9329414,           0.
   1989,   5.97882366,   18.9329414,           0.
   1990,   6.47705889,   18.9329414,           0.
   1991,   6.97529411,   18.9329414,           0.
   1992,   7.47352934,   18.9329414,           0.
   1993,   7.97176456,   18.9329414,           0.
   1994,   8.47000027,   18.9329414,           0.
   1995,   8.96823502,   18.9329414,           0.
   1996,   9.46647072,   18.9329414,           0.
   1997,   9.96470547,   18.9329414,           0.
   1998,   10.4629412,   18.9329414,           0.
   1999,   10.9611769,   18.9329414,           0.
   2000,   11.4594116,   18.9329414,           0.
   2001,   11.9576473,   18.9329414,           0.
   2002,   12.4558821,   18.9329414,           0.
   2003,   12.9541178,   18.9329414,           0.
   2004,   13.4523525,   18.9329414,           0.
   2005,   13.9505882,   18.9329414,           0.
   2006,   14.4488239,   18.9329414,           0.
   2007,   14.9470587,   18.9329414,           0.
   2008,   15.4452944,   18.9329414,           0.
   2009,   15.9435291,   18.9329414,           0.
   2010,   16.4417648,   18.9329414,           0.
   2011,   16.9400005,   18.9329414,           0.
   2012,   17.4382362,   18.9329414,           0.
   2013,     17.93647,   18.9329414,           0.
   2014,   18.4347057,   18.9329414,           0.
   2015,   18.9329414,   18.9329414,           0.
   2016,   19.4311771,   18.9329414,           0.
   2017,   19.9294109,   18.9329414,           0.
   2018,   20.4276466,   18.9329414,           0.
   2019,   20.9258823,   18.9329414,           0.
   2020,    21.424118,   18.9329414,           0.
   2021,   21.9223537,   18.9329414,           0.
   2022,   22.4205875,   18.9329414,           0.
   2023,   22.9188232,   18.9329414,           0.
   2024,   23.4170589,   18.9329414,           0.
   2025,   23.9152946,   18.9329414,           0.
   2026,   24.4135303,   18.9329414,           0.
   2027,   24.9117641,   18.9329414,           0.
   2028,   25.4099998,   18.9329414,           0.
   2029,           0.,   19.4311771,           0.
   2030,  0.498235285,   19.4311771,           0.
   2031,  0.996470571,   19.4311771,           0.
   2032,   1.49470592,   19.4311771,           0.
   2033,   1.99294114,   19.4311771,           0.
   2034,   2.49117637,   19.4311771,           0.
   2035,   2.98941183,   19.4311771,           0.
   2036,   3.48764706,   19.4311771,           0.
   2037,   3.98588228,   19.4311771,           0.
   2038,   4.48411751,   19.4311771,           0.
   2039,   4.98235273,   19.4311771,           0.
   2040,   5.48058844,   19.4311771,           0.
   2041,   5.97882366,   19.4311771,           0.
   2042,   6.47705889,   19.4311771,           0.
   2043,   6.97529411,   19.4311771,           0.
   2044,   7.47352934,   19.4311771,           0.
   2045,   7.97176456,   19.4311771,           0.
   2046,   8.47000027,   19.4311771,           0.
   2047,   8.96823502,   19.4311771,           0.
   2048,   9.46647072,   19.4311771,           0.
   2049,   9.96470547,   19.4311771,           0.
   2050,   10.4629412,   19.4311771,           0.
   2051,   10.9611769,   19.4311771,           0.
   2052,   11.4594116,   19.4311771,           0.
   2053,   11.9576473,   19.4311771,           0.
   2054,   12.4558821,   19.4311771,           0.
   2055,   12.9541178,   19.4311771,           0.
   2056,   13.4523525,   19.4311771,           0.
   2057,   13.9505882,   19.4311771,           0.
   2058,   14.4488239,   19.4311771,           0.
   2059,   14.9470587,   19.4311771,           0.
   2060,   15.4452944,   19.4311771,           0.
   2061,   15.9435291,   19.4311771,           0.
   2062,   16.4417648,   19.4311771,           0.
   2063,   16.9400005,   19.4311771,           0.
   2064,   17.4382362,   19.4311771,           0.
   2065,     17.93647,   19.4311771,           0.
   2066,   18.4347057,   19.4311771,           0.
   2067,   18.9329414,   19.4311771,           0.
   2068,   19.4311771,   19.4311771,           0.
   2069,   19.9294109,   19.4311771,           0.
   2070,   20.4276466,   19.4311771,           0.
   2071,   20.9258823,   19.4311771,           0.
   2072,    21.424118,   19.4311771,           0.
   2073,   21.9223537,   19.4311771,           0.
   2074,   22.4205875,   19.4311771,           0.
   2075,   22.9188232,   19.4311771,           0.
   2076,   23.4170589,   19.4311771,           0.
   2077,   23.9152946,   19.4311771,           0.
   2078,   24.4135303,   19.4311771,           0.
   2079,   24.9117641,   19.4311771,           0.
   2080,   25.4099998,   19.4311771,           0.
   2081,           0.,   19.9294109,           0.
   2082,  0.498235285,   19.9294109,           0.
   2083,  0.996470571,   19.9294109,           0.
   2084,   1.49470592,   19.9294109,           0.
   2085,   1.99294114,   19.9294109,           0.
   2086,   2.49117637,   19.9294109,           0.
   2087,   2.98941183,   19.9294109,           0.
   2088,   3.48764706,   19.9294109,           0.
   2089,   3.98588228,   19.9294109,           0.
   2090,   4.48411751,   19.9294109,           0.
   2091,   4.98235273,   19.9294109,           0.
   2092,   5.48058844,   19.9294109,           0.
   2093,   5.97882366,   19.9294109,           0.
   2094,   6.47705889,   19.9294109,           0.
   2095,   6.97529411,   19.9294109,           0.
   2096,   7.47352934,   19.9294109,           0.
   2097,   7.97176456,   19.9294109,           0.
   2098,   8.47000027,   19.9294109,           0.
   2099,   8.96823502,   19.9294109,           0.
   2100,   9.46647072,   19.9294109,           0.
   2101,   9.96470547,   19.9294109,           0.
   2102,   10.4629412,   19.9294109,           0.
   2103,   10.9611769,   19.9294109,           0.
   2104,   11.4594116,   19.9294109,           0.
   2105,   11.9576473,   19.9294109,           0.
   2106,   12.4558821,   19.9294109,           0.
   2107,   12.9541178,   19.9294109,           0.
   2108,   13.4523525,   19.9294109,           0.
   2109,   13.9505882,   19.9294109,           0.
   2110,   14.4488239,   19.9294109,           0.
   2111,   14.9470587,   19.9294109,           0.
   2112,   15.4452944,   19.9294109,           0.
   2113,   15.9435291,   19.9294109,           0.
   2114,   16.4417648,   19.9294109,           0.
   2115,   16.9400005,   19.9294109,           0.
   2116,   17.4382362,   19.9294109,           0.
   2117,     17.93647,   19.9294109,           0.
   2118,   18.4347057,   19.9294109,           0.
   2119,   18.9329414,   19.9294109,           0.
   2120,   19.4311771,   19.9294109,           0.
   2121,   19.9294109,   19.9294109,           0.
   2122,   20.4276466,   19.9294109,           0.
   2123,   20.9258823,   19.9294109,           0.
   2124,    21.424118,   19.9294109,           0.
   2125,   21.9223537,   19.9294109,           0.
   2126,   22.4205875,   19.9294109,           0.
   2127,   22.9188232,   19.9294109,           0.
   2128,   23.4170589,   19.9294109,           0.
   2129,   23.9152946,   19.9294109,           0.
   2130,   24.4135303,   19.9294109,           0.
   2131,   24.9117641,   19.9294109,           0.
   2132,   25.4099998,   19.9294109,           0.
   2133,           0.,   20.4276466,           0.
   2134,  0.498235285,   20.4276466,           0.
   2135,  0.996470571,   20.4276466,           0.
   2136,   1.49470592,   20.4276466,           0.
   2137,   1.99294114,   20.4276466,           0.
   2138,   2.49117637,   20.4276466,           0.
   2139,   2.98941183,   20.4276466,           0.
   2140,   3.48764706,   20.4276466,           0.
   2141,   3.98588228,   20.4276466,           0.
   2142,   4.48411751,   20.4276466,           0.
   2143,   4.98235273,   20.4276466,           0.
   2144,   5.48058844,   20.4276466,           0.
   2145,   5.97882366,   20.4276466,           0.
   2146,   6.47705889,   20.4276466,           0.
   2147,   6.97529411,   20.4276466,           0.
   2148,   7.47352934,   20.4276466,           0.
   2149,   7.97176456,   20.4276466,           0.
   2150,   8.47000027,   20.4276466,           0.
   2151,   8.96823502,   20.4276466,           0.
   2152,   9.46647072,   20.4276466,           0.
   2153,   9.96470547,   20.4276466,           0.
   2154,   10.4629412,   20.4276466,           0.
   2155,   10.9611769,   20.4276466,           0.
   2156,   11.4594116,   20.4276466,           0.
   2157,   11.9576473,   20.4276466,           0.
   2158,   12.4558821,   20.4276466,           0.
   2159,   12.9541178,   20.4276466,           0.
   2160,   13.4523525,   20.4276466,           0.
   2161,   13.9505882,   20.4276466,           0.
   2162,   14.4488239,   20.4276466,           0.
   2163,   14.9470587,   20.4276466,           0.
   2164,   15.4452944,   20.4276466,           0.
   2165,   15.9435291,   20.4276466,           0.
   2166,   16.4417648,   20.4276466,           0.
   2167,   16.9400005,   20.4276466,           0.
   2168,   17.4382362,   20.4276466,           0.
   2169,     17.93647,   20.4276466,           0.
   2170,   18.4347057,   20.4276466,           0.
   2171,   18.9329414,   20.4276466,           0.
   2172,   19.4311771,   20.4276466,           0.
   2173,   19.9294109,   20.4276466,           0.
   2174,   20.4276466,   20.4276466,           0.
   2175,   20.9258823,   20.4276466,           0.
   2176,    21.424118,   20.4276466,           0.
   2177,   21.9223537,   20.4276466,           0.
   2178,   22.4205875,   20.4276466,           0.
   2179,   22.9188232,   20.4276466,           0.
   2180,   23.4170589,   20.4276466,           0.
   2181,   23.9152946,   20.4276466,           0.
   2182,   24.4135303,   20.4276466,           0.
   2183,   24.9117641,   20.4276466,           0.
   2184,   25.4099998,   20.4276466,           0.
   2185,           0.,   20.9258823,           0.
   2186,  0.498235285,   20.9258823,           0.
   2187,  0.996470571,   20.9258823,           0.
   2188,   1.49470592,   20.9258823,           0.
   2189,   1.99294114,   20.9258823,           0.
   2190,   2.49117637,   20.9258823,           0.
   2191,   2.98941183,   20.9258823,           0.
   2192,   3.48764706,   20.9258823,           0.
   2193,   3.98588228,   20.9258823,           0.
   2194,   4.48411751,   20.9258823,           0.
   2195,   4.98235273,   20.9258823,           0.
   2196,   5.48058844,   20.9258823,           0.
   2197,   5.97882366,   20.9258823,           0.
   2198,   6.47705889,   20.9258823,           0.
   2199,   6.97529411,   20.9258823,           0.
   2200,   7.47352934,   20.9258823,           0.
   2201,   7.97176456,   20.9258823,           0.
   2202,   8.47000027,   20.9258823,           0.
   2203,   8.96823502,   20.9258823,           0.
   2204,   9.46647072,   20.9258823,           0.
   2205,   9.96470547,   20.9258823,           0.
   2206,   10.4629412,   20.9258823,           0.
   2207,   10.9611769,   20.9258823,           0.
   2208,   11.4594116,   20.9258823,           0.
   2209,   11.9576473,   20.9258823,           0.
   2210,   12.4558821,   20.9258823,           0.
   2211,   12.9541178,   20.9258823,           0.
   2212,   13.4523525,   20.9258823,           0.
   2213,   13.9505882,   20.9258823,           0.
   2214,   14.4488239,   20.9258823,           0.
   2215,   14.9470587,   20.9258823,           0.
   2216,   15.4452944,   20.9258823,           0.
   2217,   15.9435291,   20.9258823,           0.
   2218,   16.4417648,   20.9258823,           0.
   2219,   16.9400005,   20.9258823,           0.
   2220,   17.4382362,   20.9258823,           0.
   2221,     17.93647,   20.9258823,           0.
   2222,   18.4347057,   20.9258823,           0.
   2223,   18.9329414,   20.9258823,           0.
   2224,   19.4311771,   20.9258823,           0.
   2225,   19.9294109,   20.9258823,           0.
   2226,   20.4276466,   20.9258823,           0.
   2227,   20.9258823,   20.9258823,           0.
   2228,    21.424118,   20.9258823,           0.
   2229,   21.9223537,   20.9258823,           0.
   2230,   22.4205875,   20.9258823,           0.
   2231,   22.9188232,   20.9258823,           0.
   2232,   23.4170589,   20.9258823,           0.
   2233,   23.9152946,   20.9258823,           0.
   2234,   24.4135303,   20.9258823,           0.
   2235,   24.9117641,   20.9258823,           0.
   2236,   25.4099998,   20.9258823,           0.
   2237,           0.,    21.424118,           0.
   2238,  0.498235285,    21.424118,           0.
   2239,  0.996470571,    21.424118,           0.
   2240,   1.49470592,    21.424118,           0.
   2241,   1.99294114,    21.424118,           0.
   2242,   2.49117637,    21.424118,           0.
   2243,   2.98941183,    21.424118,           0.
   2244,   3.48764706,    21.424118,           0.
   2245,   3.98588228,    21.424118,           0.
   2246,   4.48411751,    21.424118,           0.
   2247,   4.98235273,    21.424118,           0.
   2248,   5.48058844,    21.424118,           0.
   2249,   5.97882366,    21.424118,           0.
   2250,   6.47705889,    21.424118,           0.
   2251,   6.97529411,    21.424118,           0.
   2252,   7.47352934,    21.424118,           0.
   2253,   7.97176456,    21.424118,           0.
   2254,   8.47000027,    21.424118,           0.
   2255,   8.96823502,    21.424118,           0.
   2256,   9.46647072,    21.424118,           0.
   2257,   9.96470547,    21.424118,           0.
   2258,   10.4629412,    21.424118,           0.
   2259,   10.9611769,    21.424118,           0.
   2260,   11.4594116,    21.424118,           0.
   2261,   11.9576473,    21.424118,           0.
   2262,   12.4558821,    21.424118,           0.
   2263,   12.9541178,    21.424118,           0.
   2264,   13.4523525,    21.424118,           0.
   2265,   13.9505882,    21.424118,           0.
   2266,   14.4488239,    21.424118,           0.
   2267,   14.9470587,    21.424118,           0.
   2268,   15.4452944,    21.424118,           0.
   2269,   15.9435291,    21.424118,           0.
   2270,   16.4417648,    21.424118,           0.
   2271,   16.9400005,    21.424118,           0.
   2272,   17.4382362,    21.424118,           0.
   2273,     17.93647,    21.424118,           0.
   2274,   18.4347057,    21.424118,           0.
   2275,   18.9329414,    21.424118,           0.
   2276,   19.4311771,    21.424118,           0.
   2277,   19.9294109,    21.424118,           0.
   2278,   20.4276466,    21.424118,           0.
   2279,   20.9258823,    21.424118,           0.
   2280,    21.424118,    21.424118,           0.
   2281,   21.9223537,    21.424118,           0.
   2282,   22.4205875,    21.424118,           0.
   2283,   22.9188232,    21.424118,           0.
   2284,   23.4170589,    21.424118,           0.
   2285,   23.9152946,    21.424118,           0.
   2286,   24.4135303,    21.424118,           0.
   2287,   24.9117641,    21.424118,           0.
   2288,   25.4099998,    21.424118,           0.
   2289,           0.,   21.9223537,           0.
   2290,  0.498235285,   21.9223537,           0.
   2291,  0.996470571,   21.9223537,           0.
   2292,   1.49470592,   21.9223537,           0.
   2293,   1.99294114,   21.9223537,           0.
   2294,   2.49117637,   21.9223537,           0.
   2295,   2.98941183,   21.9223537,           0.
   2296,   3.48764706,   21.9223537,           0.
   2297,   3.98588228,   21.9223537,           0.
   2298,   4.48411751,   21.9223537,           0.
   2299,   4.98235273,   21.9223537,           0.
   2300,   5.48058844,   21.9223537,           0.
   2301,   5.97882366,   21.9223537,           0.
   2302,   6.47705889,   21.9223537,           0.
   2303,   6.97529411,   21.9223537,           0.
   2304,   7.47352934,   21.9223537,           0.
   2305,   7.97176456,   21.9223537,           0.
   2306,   8.47000027,   21.9223537,           0.
   2307,   8.96823502,   21.9223537,           0.
   2308,   9.46647072,   21.9223537,           0.
   2309,   9.96470547,   21.9223537,           0.
   2310,   10.4629412,   21.9223537,           0.
   2311,   10.9611769,   21.9223537,           0.
   2312,   11.4594116,   21.9223537,           0.
   2313,   11.9576473,   21.9223537,           0.
   2314,   12.4558821,   21.9223537,           0.
   2315,   12.9541178,   21.9223537,           0.
   2316,   13.4523525,   21.9223537,           0.
   2317,   13.9505882,   21.9223537,           0.
   2318,   14.4488239,   21.9223537,           0.
   2319,   14.9470587,   21.9223537,           0.
   2320,   15.4452944,   21.9223537,           0.
   2321,   15.9435291,   21.9223537,           0.
   2322,   16.4417648,   21.9223537,           0.
   2323,   16.9400005,   21.9223537,           0.
   2324,   17.4382362,   21.9223537,           0.
   2325,     17.93647,   21.9223537,           0.
   2326,   18.4347057,   21.9223537,           0.
   2327,   18.9329414,   21.9223537,           0.
   2328,   19.4311771,   21.9223537,           0.
   2329,   19.9294109,   21.9223537,           0.
   2330,   20.4276466,   21.9223537,           0.
   2331,   20.9258823,   21.9223537,           0.
   2332,    21.424118,   21.9223537,           0.
   2333,   21.9223537,   21.9223537,           0.
   2334,   22.4205875,   21.9223537,           0.
   2335,   22.9188232,   21.9223537,           0.
   2336,   23.4170589,   21.9223537,           0.
   2337,   23.9152946,   21.9223537,           0.
   2338,   24.4135303,   21.9223537,           0.
   2339,   24.9117641,   21.9223537,           0.
   2340,   25.4099998,   21.9223537,           0.
   2341,           0.,   22.4205875,           0.
   2342,  0.498235285,   22.4205875,           0.
   2343,  0.996470571,   22.4205875,           0.
   2344,   1.49470592,   22.4205875,           0.
   2345,   1.99294114,   22.4205875,           0.
   2346,   2.49117637,   22.4205875,           0.
   2347,   2.98941183,   22.4205875,           0.
   2348,   3.48764706,   22.4205875,           0.
   2349,   3.98588228,   22.4205875,           0.
   2350,   4.48411751,   22.4205875,           0.
   2351,   4.98235273,   22.4205875,           0.
   2352,   5.48058844,   22.4205875,           0.
   2353,   5.97882366,   22.4205875,           0.
   2354,   6.47705889,   22.4205875,           0.
   2355,   6.97529411,   22.4205875,           0.
   2356,   7.47352934,   22.4205875,           0.
   2357,   7.97176456,   22.4205875,           0.
   2358,   8.47000027,   22.4205875,           0.
   2359,   8.96823502,   22.4205875,           0.
   2360,   9.46647072,   22.4205875,           0.
   2361,   9.96470547,   22.4205875,           0.
   2362,   10.4629412,   22.4205875,           0.
   2363,   10.9611769,   22.4205875,           0.
   2364,   11.4594116,   22.4205875,           0.
   2365,   11.9576473,   22.4205875,           0.
   2366,   12.4558821,   22.4205875,           0.
   2367,   12.9541178,   22.4205875,           0.
   2368,   13.4523525,   22.4205875,           0.
   2369,   13.9505882,   22.4205875,           0.
   2370,   14.4488239,   22.4205875,           0.
   2371,   14.9470587,   22.4205875,           0.
   2372,   15.4452944,   22.4205875,           0.
   2373,   15.9435291,   22.4205875,           0.
   2374,   16.4417648,   22.4205875,           0.
   2375,   16.9400005,   22.4205875,           0.
   2376,   17.4382362,   22.4205875,           0.
   2377,     17.93647,   22.4205875,           0.
   2378,   18.4347057,   22.4205875,           0.
   2379,   18.9329414,   22.4205875,           0.
   2380,   19.4311771,   22.4205875,           0.
   2381,   19.9294109,   22.4205875,           0.
   2382,   20.4276466,   22.4205875,           0.
   2383,   20.9258823,   22.4205875,           0.
   2384,    21.424118,   22.4205875,           0.
   2385,   21.9223537,   22.4205875,           0.
   2386,   22.4205875,   22.4205875,           0.
   2387,   22.9188232,   22.4205875,           0.
   2388,   23.4170589,   22.4205875,           0.
   2389,   23.9152946,   22.4205875,           0.
   2390,   24.4135303,   22.4205875,           0.
   2391,   24.9117641,   22.4205875,           0.
   2392,   25.4099998,   22.4205875,           0.
   2393,           0.,   22.9188232,           0.
   2394,  0.498235285,   22.9188232,           0.
   2395,  0.996470571,   22.9188232,           0.
   2396,   1.49470592,   22.9188232,           0.
   2397,   1.99294114,   22.9188232,           0.
   2398,   2.49117637,   22.9188232,           0.
   2399,   2.98941183,   22.9188232,           0.
   2400,   3.48764706,   22.9188232,           0.
   2401,   3.98588228,   22.9188232,           0.
   2402,   4.48411751,   22.9188232,           0.
   2403,   4.98235273,   22.9188232,           0.
   2404,   5.48058844,   22.9188232,           0.
   2405,   5.97882366,   22.9188232,           0.
   2406,   6.47705889,   22.9188232,           0.
   2407,   6.97529411,   22.9188232,           0.
   2408,   7.47352934,   22.9188232,           0.
   2409,   7.97176456,   22.9188232,           0.
   2410,   8.47000027,   22.9188232,           0.
   2411,   8.96823502,   22.9188232,           0.
   2412,   9.46647072,   22.9188232,           0.
   2413,   9.96470547,   22.9188232,           0.
   2414,   10.4629412,   22.9188232,           0.
   2415,   10.9611769,   22.9188232,           0.
   2416,   11.4594116,   22.9188232,           0.
   2417,   11.9576473,   22.9188232,           0.
   2418,   12.4558821,   22.9188232,           0.
   2419,   12.9541178,   22.9188232,           0.
   2420,   13.4523525,   22.9188232,           0.
   2421,   13.9505882,   22.9188232,           0.
   2422,   14.4488239,   22.9188232,           0.
   2423,   14.9470587,   22.9188232,           0.
   2424,   15.4452944,   22.9188232,           0.
   2425,   15.9435291,   22.9188232,           0.
   2426,   16.4417648,   22.9188232,           0.
   2427,   16.9400005,   22.9188232,           0.
   2428,   17.4382362,   22.9188232,           0.
   2429,     17.93647,   22.9188232,           0.
   2430,   18.4347057,   22.9188232,           0.
   2431,   18.9329414,   22.9188232,           0.
   2432,   19.4311771,   22.9188232,           0.
   2433,   19.9294109,   22.9188232,           0.
   2434,   20.4276466,   22.9188232,           0.
   2435,   20.9258823,   22.9188232,           0.
   2436,    21.424118,   22.9188232,           0.
   2437,   21.9223537,   22.9188232,           0.
   2438,   22.4205875,   22.9188232,           0.
   2439,   22.9188232,   22.9188232,           0.
   2440,   23.4170589,   22.9188232,           0.
   2441,   23.9152946,   22.9188232,           0.
   2442,   24.4135303,   22.9188232,           0.
   2443,   24.9117641,   22.9188232,           0.
   2444,   25.4099998,   22.9188232,           0.
   2445,           0.,   23.4170589,           0.
   2446,  0.498235285,   23.4170589,           0.
   2447,  0.996470571,   23.4170589,           0.
   2448,   1.49470592,   23.4170589,           0.
   2449,   1.99294114,   23.4170589,           0.
   2450,   2.49117637,   23.4170589,           0.
   2451,   2.98941183,   23.4170589,           0.
   2452,   3.48764706,   23.4170589,           0.
   2453,   3.98588228,   23.4170589,           0.
   2454,   4.48411751,   23.4170589,           0.
   2455,   4.98235273,   23.4170589,           0.
   2456,   5.48058844,   23.4170589,           0.
   2457,   5.97882366,   23.4170589,           0.
   2458,   6.47705889,   23.4170589,           0.
   2459,   6.97529411,   23.4170589,           0.
   2460,   7.47352934,   23.4170589,           0.
   2461,   7.97176456,   23.4170589,           0.
   2462,   8.47000027,   23.4170589,           0.
   2463,   8.96823502,   23.4170589,           0.
   2464,   9.46647072,   23.4170589,           0.
   2465,   9.96470547,   23.4170589,           0.
   2466,   10.4629412,   23.4170589,           0.
   2467,   10.9611769,   23.4170589,           0.
   2468,   11.4594116,   23.4170589,           0.
   2469,   11.9576473,   23.4170589,           0.
   2470,   12.4558821,   23.4170589,           0.
   2471,   12.9541178,   23.4170589,           0.
   2472,   13.4523525,   23.4170589,           0.
   2473,   13.9505882,   23.4170589,           0.
   2474,   14.4488239,   23.4170589,           0.
   2475,   14.9470587,   23.4170589,           0.
   2476,   15.4452944,   23.4170589,           0.
   2477,   15.9435291,   23.4170589,           0.
   2478,   16.4417648,   23.4170589,           0.
   2479,   16.9400005,   23.4170589,           0.
   2480,   17.4382362,   23.4170589,           0.
   2481,     17.93647,   23.4170589,           0.
   2482,   18.4347057,   23.4170589,           0.
   2483,   18.9329414,   23.4170589,           0.
   2484,   19.4311771,   23.4170589,           0.
   2485,   19.9294109,   23.4170589,           0.
   2486,   20.4276466,   23.4170589,           0.
   2487,   20.9258823,   23.4170589,           0.
   2488,    21.424118,   23.4170589,           0.
   2489,   21.9223537,   23.4170589,           0.
   2490,   22.4205875,   23.4170589,           0.
   2491,   22.9188232,   23.4170589,           0.
   2492,   23.4170589,   23.4170589,           0.
   2493,   23.9152946,   23.4170589,           0.
   2494,   24.4135303,   23.4170589,           0.
   2495,   24.9117641,   23.4170589,           0.
   2496,   25.4099998,   23.4170589,           0.
   2497,           0.,   23.9152946,           0.
   2498,  0.498235285,   23.9152946,           0.
   2499,  0.996470571,   23.9152946,           0.
   2500,   1.49470592,   23.9152946,           0.
   2501,   1.99294114,   23.9152946,           0.
   2502,   2.49117637,   23.9152946,           0.
   2503,   2.98941183,   23.9152946,           0.
   2504,   3.48764706,   23.9152946,           0.
   2505,   3.98588228,   23.9152946,           0.
   2506,   4.48411751,   23.9152946,           0.
   2507,   4.98235273,   23.9152946,           0.
   2508,   5.48058844,   23.9152946,           0.
   2509,   5.97882366,   23.9152946,           0.
   2510,   6.47705889,   23.9152946,           0.
   2511,   6.97529411,   23.9152946,           0.
   2512,   7.47352934,   23.9152946,           0.
   2513,   7.97176456,   23.9152946,           0.
   2514,   8.47000027,   23.9152946,           0.
   2515,   8.96823502,   23.9152946,           0.
   2516,   9.46647072,   23.9152946,           0.
   2517,   9.96470547,   23.9152946,           0.
   2518,   10.4629412,   23.9152946,           0.
   2519,   10.9611769,   23.9152946,           0.
   2520,   11.4594116,   23.9152946,           0.
   2521,   11.9576473,   23.9152946,           0.
   2522,   12.4558821,   23.9152946,           0.
   2523,   12.9541178,   23.9152946,           0.
   2524,   13.4523525,   23.9152946,           0.
   2525,   13.9505882,   23.9152946,           0.
   2526,   14.4488239,   23.9152946,           0.
   2527,   14.9470587,   23.9152946,           0.
   2528,   15.4452944,   23.9152946,           0.
   2529,   15.9435291,   23.9152946,           0.
   2530,   16.4417648,   23.9152946,           0.
   2531,   16.9400005,   23.9152946,           0.
   2532,   17.4382362,   23.9152946,           0.
   2533,     17.93647,   23.9152946,           0.
   2534,   18.4347057,   23.9152946,           0.
   2535,   18.9329414,   23.9152946,           0.
   2536,   19.4311771,   23.9152946,           0.
   2537,   19.9294109,   23.9152946,           0.
   2538,   20.4276466,   23.9152946,           0.
   2539,   20.9258823,   23.9152946,           0.
   2540,    21.424118,   23.9152946,           0.
   2541,   21.9223537,   23.9152946,           0.
   2542,   22.4205875,   23.9152946,           0.
   2543,   22.9188232,   23.9152946,           0.
   2544,   23.4170589,   23.9152946,           0.
   2545,   23.9152946,   23.9152946,           0.
   2546,   24.4135303,   23.9152946,           0.
   2547,   24.9117641,   23.9152946,           0.
   2548,   25.4099998,   23.9152946,           0.
   2549,           0.,   24.4135303,           0.
   2550,  0.498235285,   24.4135303,           0.
   2551,  0.996470571,   24.4135303,           0.
   2552,   1.49470592,   24.4135303,           0.
   2553,   1.99294114,   24.4135303,           0.
   2554,   2.49117637,   24.4135303,           0.
   2555,   2.98941183,   24.4135303,           0.
   2556,   3.48764706,   24.4135303,           0.
   2557,   3.98588228,   24.4135303,           0.
   2558,   4.48411751,   24.4135303,           0.
   2559,   4.98235273,   24.4135303,           0.
   2560,   5.48058844,   24.4135303,           0.
   2561,   5.97882366,   24.4135303,           0.
   2562,   6.47705889,   24.4135303,           0.
   2563,   6.97529411,   24.4135303,           0.
   2564,   7.47352934,   24.4135303,           0.
   2565,   7.97176456,   24.4135303,           0.
   2566,   8.47000027,   24.4135303,           0.
   2567,   8.96823502,   24.4135303,           0.
   2568,   9.46647072,   24.4135303,           0.
   2569,   9.96470547,   24.4135303,           0.
   2570,   10.4629412,   24.4135303,           0.
   2571,   10.9611769,   24.4135303,           0.
   2572,   11.4594116,   24.4135303,           0.
   2573,   11.9576473,   24.4135303,           0.
   2574,   12.4558821,   24.4135303,           0.
   2575,   12.9541178,   24.4135303,           0.
   2576,   13.4523525,   24.4135303,           0.
   2577,   13.9505882,   24.4135303,           0.
   2578,   14.4488239,   24.4135303,           0.
   2579,   14.9470587,   24.4135303,           0.
   2580,   15.4452944,   24.4135303,           0.
   2581,   15.9435291,   24.4135303,           0.
   2582,   16.4417648,   24.4135303,           0.
   2583,   16.9400005,   24.4135303,           0.
   2584,   17.4382362,   24.4135303,           0.
   2585,     17.93647,   24.4135303,           0.
   2586,   18.4347057,   24.4135303,           0.
   2587,   18.9329414,   24.4135303,           0.
   2588,   19.4311771,   24.4135303,           0.
   2589,   19.9294109,   24.4135303,           0.
   2590,   20.4276466,   24.4135303,           0.
   2591,   20.9258823,   24.4135303,           0.
   2592,    21.424118,   24.4135303,           0.
   2593,   21.9223537,   24.4135303,           0.
   2594,   22.4205875,   24.4135303,           0.
   2595,   22.9188232,   24.4135303,           0.
   2596,   23.4170589,   24.4135303,           0.
   2597,   23.9152946,   24.4135303,           0.
   2598,   24.4135303,   24.4135303,           0.
   2599,   24.9117641,   24.4135303,           0.
   2600,   25.4099998,   24.4135303,           0.
   2601,           0.,   24.9117641,           0.
   2602,  0.498235285,   24.9117641,           0.
   2603,  0.996470571,   24.9117641,           0.
   2604,   1.49470592,   24.9117641,           0.
   2605,   1.99294114,   24.9117641,           0.
   2606,   2.49117637,   24.9117641,           0.
   2607,   2.98941183,   24.9117641,           0.
   2608,   3.48764706,   24.9117641,           0.
   2609,   3.98588228,   24.9117641,           0.
   2610,   4.48411751,   24.9117641,           0.
   2611,   4.98235273,   24.9117641,           0.
   2612,   5.48058844,   24.9117641,           0.
   2613,   5.97882366,   24.9117641,           0.
   2614,   6.47705889,   24.9117641,           0.
   2615,   6.97529411,   24.9117641,           0.
   2616,   7.47352934,   24.9117641,           0.
   2617,   7.97176456,   24.9117641,           0.
   2618,   8.47000027,   24.9117641,           0.
   2619,   8.96823502,   24.9117641,           0.
   2620,   9.46647072,   24.9117641,           0.
   2621,   9.96470547,   24.9117641,           0.
   2622,   10.4629412,   24.9117641,           0.
   2623,   10.9611769,   24.9117641,           0.
   2624,   11.4594116,   24.9117641,           0.
   2625,   11.9576473,   24.9117641,           0.
   2626,   12.4558821,   24.9117641,           0.
   2627,   12.9541178,   24.9117641,           0.
   2628,   13.4523525,   24.9117641,           0.
   2629,   13.9505882,   24.9117641,           0.
   2630,   14.4488239,   24.9117641,           0.
   2631,   14.9470587,   24.9117641,           0.
   2632,   15.4452944,   24.9117641,           0.
   2633,   15.9435291,   24.9117641,           0.
   2634,   16.4417648,   24.9117641,           0.
   2635,   16.9400005,   24.9117641,           0.
   2636,   17.4382362,   24.9117641,           0.
   2637,     17.93647,   24.9117641,           0.
   2638,   18.4347057,   24.9117641,           0.
   2639,   18.9329414,   24.9117641,           0.
   2640,   19.4311771,   24.9117641,           0.
   2641,   19.9294109,   24.9117641,           0.
   2642,   20.4276466,   24.9117641,           0.
   2643,   20.9258823,   24.9117641,           0.
   2644,    21.424118,   24.9117641,           0.
   2645,   21.9223537,   24.9117641,           0.
   2646,   22.4205875,   24.9117641,           0.
   2647,   22.9188232,   24.9117641,           0.
   2648,   23.4170589,   24.9117641,           0.
   2649,   23.9152946,   24.9117641,           0.
   2650,   24.4135303,   24.9117641,           0.
   2651,   24.9117641,   24.9117641,           0.
   2652,   25.4099998,   24.9117641,           0.
   2653,           0.,   25.4099998,           0.
   2654,  0.498235285,   25.4099998,           0.
   2655,  0.996470571,   25.4099998,           0.
   2656,   1.49470592,   25.4099998,           0.
   2657,   1.99294114,   25.4099998,           0.
   2658,   2.49117637,   25.4099998,           0.
   2659,   2.98941183,   25.4099998,           0.
   2660,   3.48764706,   25.4099998,           0.
   2661,   3.98588228,   25.4099998,           0.
   2662,   4.48411751,   25.4099998,           0.
   2663,   4.98235273,   25.4099998,           0.
   2664,   5.48058844,   25.4099998,           0.
   2665,   5.97882366,   25.4099998,           0.
   2666,   6.47705889,   25.4099998,           0.
   2667,   6.97529411,   25.4099998,           0.
   2668,   7.47352934,   25.4099998,           0.
   2669,   7.97176456,   25.4099998,           0.
   2670,   8.47000027,   25.4099998,           0.
   2671,   8.96823502,   25.4099998,           0.
   2672,   9.46647072,   25.4099998,           0.
   2673,   9.96470547,   25.4099998,           0.
   2674,   10.4629412,   25.4099998,           0.
   2675,   10.9611769,   25.4099998,           0.
   2676,   11.4594116,   25.4099998,           0.
   2677,   11.9576473,   25.4099998,           0.
   2678,   12.4558821,   25.4099998,           0.
   2679,   12.9541178,   25.4099998,           0.
   2680,   13.4523525,   25.4099998,           0.
   2681,   13.9505882,   25.4099998,           0.
   2682,   14.4488239,   25.4099998,           0.
   2683,   14.9470587,   25.4099998,           0.
   2684,   15.4452944,   25.4099998,           0.
   2685,   15.9435291,   25.4099998,           0.
   2686,   16.4417648,   25.4099998,           0.
   2687,   16.9400005,   25.4099998,           0.
   2688,   17.4382362,   25.4099998,           0.
   2689,     17.93647,   25.4099998,           0.
   2690,   18.4347057,   25.4099998,           0.
   2691,   18.9329414,   25.4099998,           0.
   2692,   19.4311771,   25.4099998,           0.
   2693,   19.9294109,   25.4099998,           0.
   2694,   20.4276466,   25.4099998,           0.
   2695,   20.9258823,   25.4099998,           0.
   2696,    21.424118,   25.4099998,           0.
   2697,   21.9223537,   25.4099998,           0.
   2698,   22.4205875,   25.4099998,           0.
   2699,   22.9188232,   25.4099998,           0.
   2700,   23.4170589,   25.4099998,           0.
   2701,   23.9152946,   25.4099998,           0.
   2702,   24.4135303,   25.4099998,           0.
   2703,   24.9117641,   25.4099998,           0.
   2704,   25.4099998,   25.4099998,           0.
   2705,           0.,   25.9082355,           0.
   2706,  0.498235285,   25.9082355,           0.
   2707,  0.996470571,   25.9082355,           0.
   2708,   1.49470592,   25.9082355,           0.
   2709,   1.99294114,   25.9082355,           0.
   2710,   2.49117637,   25.9082355,           0.
   2711,   2.98941183,   25.9082355,           0.
   2712,   3.48764706,   25.9082355,           0.
   2713,   3.98588228,   25.9082355,           0.
   2714,   4.48411751,   25.9082355,           0.
   2715,   4.98235273,   25.9082355,           0.
   2716,   5.48058844,   25.9082355,           0.
   2717,   5.97882366,   25.9082355,           0.
   2718,   6.47705889,   25.9082355,           0.
   2719,   6.97529411,   25.9082355,           0.
   2720,   7.47352934,   25.9082355,           0.
   2721,   7.97176456,   25.9082355,           0.
   2722,   8.47000027,   25.9082355,           0.
   2723,   8.96823502,   25.9082355,           0.
   2724,   9.46647072,   25.9082355,           0.
   2725,   9.96470547,   25.9082355,           0.
   2726,   10.4629412,   25.9082355,           0.
   2727,   10.9611769,   25.9082355,           0.
   2728,   11.4594116,   25.9082355,           0.
   2729,   11.9576473,   25.9082355,           0.
   2730,   12.4558821,   25.9082355,           0.
   2731,   12.9541178,   25.9082355,           0.
   2732,   13.4523525,   25.9082355,           0.
   2733,   13.9505882,   25.9082355,           0.
   2734,   14.4488239,   25.9082355,           0.
   2735,   14.9470587,   25.9082355,           0.
   2736,   15.4452944,   25.9082355,           0.
   2737,   15.9435291,   25.9082355,           0.
   2738,   16.4417648,   25.9082355,           0.
   2739,   16.9400005,   25.9082355,           0.
   2740,   17.4382362,   25.9082355,           0.
   2741,     17.93647,   25.9082355,           0.
   2742,   18.4347057,   25.9082355,           0.
   2743,   18.9329414,   25.9082355,           0.
   2744,   19.4311771,   25.9082355,           0.
   2745,   19.9294109,   25.9082355,           0.
   2746,   20.4276466,   25.9082355,           0.
   2747,   20.9258823,   25.9082355,           0.
   2748,    21.424118,   25.9082355,           0.
   2749,   21.9223537,   25.9082355,           0.
   2750,   22.4205875,   25.9082355,           0.
   2751,   22.9188232,   25.9082355,           0.
   2752,   23.4170589,   25.9082355,           0.
   2753,   23.9152946,   25.9082355,           0.
   2754,   24.4135303,   25.9082355,           0.
   2755,   24.9117641,   25.9082355,           0.
   2756,   25.4099998,   25.9082355,           0.
   2757,           0.,   26.4064713,           0.
   2758,  0.498235285,   26.4064713,           0.
   2759,  0.996470571,   26.4064713,           0.
   2760,   1.49470592,   26.4064713,           0.
   2761,   1.99294114,   26.4064713,           0.
   2762,   2.49117637,   26.4064713,           0.
   2763,   2.98941183,   26.4064713,           0.
   2764,   3.48764706,   26.4064713,           0.
   2765,   3.98588228,   26.4064713,           0.
   2766,   4.48411751,   26.4064713,           0.
   2767,   4.98235273,   26.4064713,           0.
   2768,   5.48058844,   26.4064713,           0.
   2769,   5.97882366,   26.4064713,           0.
   2770,   6.47705889,   26.4064713,           0.
   2771,   6.97529411,   26.4064713,           0.
   2772,   7.47352934,   26.4064713,           0.
   2773,   7.97176456,   26.4064713,           0.
   2774,   8.47000027,   26.4064713,           0.
   2775,   8.96823502,   26.4064713,           0.
   2776,   9.46647072,   26.4064713,           0.
   2777,   9.96470547,   26.4064713,           0.
   2778,   10.4629412,   26.4064713,           0.
   2779,   10.9611769,   26.4064713,           0.
   2780,   11.4594116,   26.4064713,           0.
   2781,   11.9576473,   26.4064713,           0.
   2782,   12.4558821,   26.4064713,           0.
   2783,   12.9541178,   26.4064713,           0.
   2784,   13.4523525,   26.4064713,           0.
   2785,   13.9505882,   26.4064713,           0.
   2786,   14.4488239,   26.4064713,           0.
   2787,   14.9470587,   26.4064713,           0.
   2788,   15.4452944,   26.4064713,           0.
   2789,   15.9435291,   26.4064713,           0.
   2790,   16.4417648,   26.4064713,           0.
   2791,   16.9400005,   26.4064713,           0.
   2792,   17.4382362,   26.4064713,           0.
   2793,     17.93647,   26.4064713,           0.
   2794,   18.4347057,   26.4064713,           0.
   2795,   18.9329414,   26.4064713,           0.
   2796,   19.4311771,   26.4064713,           0.
   2797,   19.9294109,   26.4064713,           0.
   2798,   20.4276466,   26.4064713,           0.
   2799,   20.9258823,   26.4064713,           0.
   2800,    21.424118,   26.4064713,           0.
   2801,   21.9223537,   26.4064713,           0.
   2802,   22.4205875,   26.4064713,           0.
   2803,   22.9188232,   26.4064713,           0.
   2804,   23.4170589,   26.4064713,           0.
   2805,   23.9152946,   26.4064713,           0.
   2806,   24.4135303,   26.4064713,           0.
   2807,   24.9117641,   26.4064713,           0.
   2808,   25.4099998,   26.4064713,           0.
   2809,           0.,    26.904705,           0.
   2810,  0.498235285,    26.904705,           0.
   2811,  0.996470571,    26.904705,           0.
   2812,   1.49470592,    26.904705,           0.
   2813,   1.99294114,    26.904705,           0.
   2814,   2.49117637,    26.904705,           0.
   2815,   2.98941183,    26.904705,           0.
   2816,   3.48764706,    26.904705,           0.
   2817,   3.98588228,    26.904705,           0.
   2818,   4.48411751,    26.904705,           0.
   2819,   4.98235273,    26.904705,           0.
   2820,   5.48058844,    26.904705,           0.
   2821,   5.97882366,    26.904705,           0.
   2822,   6.47705889,    26.904705,           0.
   2823,   6.97529411,    26.904705,           0.
   2824,   7.47352934,    26.904705,           0.
   2825,   7.97176456,    26.904705,           0.
   2826,   8.47000027,    26.904705,           0.
   2827,   8.96823502,    26.904705,           0.
   2828,   9.46647072,    26.904705,           0.
   2829,   9.96470547,    26.904705,           0.
   2830,   10.4629412,    26.904705,           0.
   2831,   10.9611769,    26.904705,           0.
   2832,   11.4594116,    26.904705,           0.
   2833,   11.9576473,    26.904705,           0.
   2834,   12.4558821,    26.904705,           0.
   2835,   12.9541178,    26.904705,           0.
   2836,   13.4523525,    26.904705,           0.
   2837,   13.9505882,    26.904705,           0.
   2838,   14.4488239,    26.904705,           0.
   2839,   14.9470587,    26.904705,           0.
   2840,   15.4452944,    26.904705,           0.
   2841,   15.9435291,    26.904705,           0.
   2842,   16.4417648,    26.904705,           0.
   2843,   16.9400005,    26.904705,           0.
   2844,   17.4382362,    26.904705,           0.
   2845,     17.93647,    26.904705,           0.
   2846,   18.4347057,    26.904705,           0.
   2847,   18.9329414,    26.904705,           0.
   2848,   19.4311771,    26.904705,           0.
   2849,   19.9294109,    26.904705,           0.
   2850,   20.4276466,    26.904705,           0.
   2851,   20.9258823,    26.904705,           0.
   2852,    21.424118,    26.904705,           0.
   2853,   21.9223537,    26.904705,           0.
   2854,   22.4205875,    26.904705,           0.
   2855,   22.9188232,    26.904705,           0.
   2856,   23.4170589,    26.904705,           0.
   2857,   23.9152946,    26.904705,           0.
   2858,   24.4135303,    26.904705,           0.
   2859,   24.9117641,    26.904705,           0.
   2860,   25.4099998,    26.904705,           0.
   2861,           0.,   27.4029408,           0.
   2862,  0.498235285,   27.4029408,           0.
   2863,  0.996470571,   27.4029408,           0.
   2864,   1.49470592,   27.4029408,           0.
   2865,   1.99294114,   27.4029408,           0.
   2866,   2.49117637,   27.4029408,           0.
   2867,   2.98941183,   27.4029408,           0.
   2868,   3.48764706,   27.4029408,           0.
   2869,   3.98588228,   27.4029408,           0.
   2870,   4.48411751,   27.4029408,           0.
   2871,   4.98235273,   27.4029408,           0.
   2872,   5.48058844,   27.4029408,           0.
   2873,   5.97882366,   27.4029408,           0.
   2874,   6.47705889,   27.4029408,           0.
   2875,   6.97529411,   27.4029408,           0.
   2876,   7.47352934,   27.4029408,           0.
   2877,   7.97176456,   27.4029408,           0.
   2878,   8.47000027,   27.4029408,           0.
   2879,   8.96823502,   27.4029408,           0.
   2880,   9.46647072,   27.4029408,           0.
   2881,   9.96470547,   27.4029408,           0.
   2882,   10.4629412,   27.4029408,           0.
   2883,   10.9611769,   27.4029408,           0.
   2884,   11.4594116,   27.4029408,           0.
   2885,   11.9576473,   27.4029408,           0.
   2886,   12.4558821,   27.4029408,           0.
   2887,   12.9541178,   27.4029408,           0.
   2888,   13.4523525,   27.4029408,           0.
   2889,   13.9505882,   27.4029408,           0.
   2890,   14.4488239,   27.4029408,           0.
   2891,   14.9470587,   27.4029408,           0.
   2892,   15.4452944,   27.4029408,           0.
   2893,   15.9435291,   27.4029408,           0.
   2894,   16.4417648,   27.4029408,           0.
   2895,   16.9400005,   27.4029408,           0.
   2896,   17.4382362,   27.4029408,           0.
   2897,     17.93647,   27.4029408,           0.
   2898,   18.4347057,   27.4029408,           0.
   2899,   18.9329414,   27.4029408,           0.
   2900,   19.4311771,   27.4029408,           0.
   2901,   19.9294109,   27.4029408,           0.
   2902,   20.4276466,   27.4029408,           0.
   2903,   20.9258823,   27.4029408,           0.
   2904,    21.424118,   27.4029408,           0.
   2905,   21.9223537,   27.4029408,           0.
   2906,   22.4205875,   27.4029408,           0.
   2907,   22.9188232,   27.4029408,           0.
   2908,   23.4170589,   27.4029408,           0.
   2909,   23.9152946,   27.4029408,           0.
   2910,   24.4135303,   27.4029408,           0.
   2911,   24.9117641,   27.4029408,           0.
   2912,   25.4099998,   27.4029408,           0.
   2913,           0.,   27.9011765,           0.
   2914,  0.498235285,   27.9011765,           0.
   2915,  0.996470571,   27.9011765,           0.
   2916,   1.49470592,   27.9011765,           0.
   2917,   1.99294114,   27.9011765,           0.
   2918,   2.49117637,   27.9011765,           0.
   2919,   2.98941183,   27.9011765,           0.
   2920,   3.48764706,   27.9011765,           0.
   2921,   3.98588228,   27.9011765,           0.
   2922,   4.48411751,   27.9011765,           0.
   2923,   4.98235273,   27.9011765,           0.
   2924,   5.48058844,   27.9011765,           0.
   2925,   5.97882366,   27.9011765,           0.
   2926,   6.47705889,   27.9011765,           0.
   2927,   6.97529411,   27.9011765,           0.
   2928,   7.47352934,   27.9011765,           0.
   2929,   7.97176456,   27.9011765,           0.
   2930,   8.47000027,   27.9011765,           0.
   2931,   8.96823502,   27.9011765,           0.
   2932,   9.46647072,   27.9011765,           0.
   2933,   9.96470547,   27.9011765,           0.
   2934,   10.4629412,   27.9011765,           0.
   2935,   10.9611769,   27.9011765,           0.
   2936,   11.4594116,   27.9011765,           0.
   2937,   11.9576473,   27.9011765,           0.
   2938,   12.4558821,   27.9011765,           0.
   2939,   12.9541178,   27.9011765,           0.
   2940,   13.4523525,   27.9011765,           0.
   2941,   13.9505882,   27.9011765,           0.
   2942,   14.4488239,   27.9011765,           0.
   2943,   14.9470587,   27.9011765,           0.
   2944,   15.4452944,   27.9011765,           0.
   2945,   15.9435291,   27.9011765,           0.
   2946,   16.4417648,   27.9011765,           0.
   2947,   16.9400005,   27.9011765,           0.
   2948,   17.4382362,   27.9011765,           0.
   2949,     17.93647,   27.9011765,           0.
   2950,   18.4347057,   27.9011765,           0.
   2951,   18.9329414,   27.9011765,           0.
   2952,   19.4311771,   27.9011765,           0.
   2953,   19.9294109,   27.9011765,           0.
   2954,   20.4276466,   27.9011765,           0.
   2955,   20.9258823,   27.9011765,           0.
   2956,    21.424118,   27.9011765,           0.
   2957,   21.9223537,   27.9011765,           0.
   2958,   22.4205875,   27.9011765,           0.
   2959,   22.9188232,   27.9011765,           0.
   2960,   23.4170589,   27.9011765,           0.
   2961,   23.9152946,   27.9011765,           0.
   2962,   24.4135303,   27.9011765,           0.
   2963,   24.9117641,   27.9011765,           0.
   2964,   25.4099998,   27.9011765,           0.
   2965,           0.,   28.3994122,           0.
   2966,  0.498235285,   28.3994122,           0.
   2967,  0.996470571,   28.3994122,           0.
   2968,   1.49470592,   28.3994122,           0.
   2969,   1.99294114,   28.3994122,           0.
   2970,   2.49117637,   28.3994122,           0.
   2971,   2.98941183,   28.3994122,           0.
   2972,   3.48764706,   28.3994122,           0.
   2973,   3.98588228,   28.3994122,           0.
   2974,   4.48411751,   28.3994122,           0.
   2975,   4.98235273,   28.3994122,           0.
   2976,   5.48058844,   28.3994122,           0.
   2977,   5.97882366,   28.3994122,           0.
   2978,   6.47705889,   28.3994122,           0.
   2979,   6.97529411,   28.3994122,           0.
   2980,   7.47352934,   28.3994122,           0.
   2981,   7.97176456,   28.3994122,           0.
   2982,   8.47000027,   28.3994122,           0.
   2983,   8.96823502,   28.3994122,           0.
   2984,   9.46647072,   28.3994122,           0.
   2985,   9.96470547,   28.3994122,           0.
   2986,   10.4629412,   28.3994122,           0.
   2987,   10.9611769,   28.3994122,           0.
   2988,   11.4594116,   28.3994122,           0.
   2989,   11.9576473,   28.3994122,           0.
   2990,   12.4558821,   28.3994122,           0.
   2991,   12.9541178,   28.3994122,           0.
   2992,   13.4523525,   28.3994122,           0.
   2993,   13.9505882,   28.3994122,           0.
   2994,   14.4488239,   28.3994122,           0.
   2995,   14.9470587,   28.3994122,           0.
   2996,   15.4452944,   28.3994122,           0.
   2997,   15.9435291,   28.3994122,           0.
   2998,   16.4417648,   28.3994122,           0.
   2999,   16.9400005,   28.3994122,           0.
   3000,   17.4382362,   28.3994122,           0.
   3001,     17.93647,   28.3994122,           0.
   3002,   18.4347057,   28.3994122,           0.
   3003,   18.9329414,   28.3994122,           0.
   3004,   19.4311771,   28.3994122,           0.
   3005,   19.9294109,   28.3994122,           0.
   3006,   20.4276466,   28.3994122,           0.
   3007,   20.9258823,   28.3994122,           0.
   3008,    21.424118,   28.3994122,           0.
   3009,   21.9223537,   28.3994122,           0.
   3010,   22.4205875,   28.3994122,           0.
   3011,   22.9188232,   28.3994122,           0.
   3012,   23.4170589,   28.3994122,           0.
   3013,   23.9152946,   28.3994122,           0.
   3014,   24.4135303,   28.3994122,           0.
   3015,   24.9117641,   28.3994122,           0.
   3016,   25.4099998,   28.3994122,           0.
   3017,           0.,   28.8976479,           0.
   3018,  0.498235285,   28.8976479,           0.
   3019,  0.996470571,   28.8976479,           0.
   3020,   1.49470592,   28.8976479,           0.
   3021,   1.99294114,   28.8976479,           0.
   3022,   2.49117637,   28.8976479,           0.
   3023,   2.98941183,   28.8976479,           0.
   3024,   3.48764706,   28.8976479,           0.
   3025,   3.98588228,   28.8976479,           0.
   3026,   4.48411751,   28.8976479,           0.
   3027,   4.98235273,   28.8976479,           0.
   3028,   5.48058844,   28.8976479,           0.
   3029,   5.97882366,   28.8976479,           0.
   3030,   6.47705889,   28.8976479,           0.
   3031,   6.97529411,   28.8976479,           0.
   3032,   7.47352934,   28.8976479,           0.
   3033,   7.97176456,   28.8976479,           0.
   3034,   8.47000027,   28.8976479,           0.
   3035,   8.96823502,   28.8976479,           0.
   3036,   9.46647072,   28.8976479,           0.
   3037,   9.96470547,   28.8976479,           0.
   3038,   10.4629412,   28.8976479,           0.
   3039,   10.9611769,   28.8976479,           0.
   3040,   11.4594116,   28.8976479,           0.
   3041,   11.9576473,   28.8976479,           0.
   3042,   12.4558821,   28.8976479,           0.
   3043,   12.9541178,   28.8976479,           0.
   3044,   13.4523525,   28.8976479,           0.
   3045,   13.9505882,   28.8976479,           0.
   3046,   14.4488239,   28.8976479,           0.
   3047,   14.9470587,   28.8976479,           0.
   3048,   15.4452944,   28.8976479,           0.
   3049,   15.9435291,   28.8976479,           0.
   3050,   16.4417648,   28.8976479,           0.
   3051,   16.9400005,   28.8976479,           0.
   3052,   17.4382362,   28.8976479,           0.
   3053,     17.93647,   28.8976479,           0.
   3054,   18.4347057,   28.8976479,           0.
   3055,   18.9329414,   28.8976479,           0.
   3056,   19.4311771,   28.8976479,           0.
   3057,   19.9294109,   28.8976479,           0.
   3058,   20.4276466,   28.8976479,           0.
   3059,   20.9258823,   28.8976479,           0.
   3060,    21.424118,   28.8976479,           0.
   3061,   21.9223537,   28.8976479,           0.
   3062,   22.4205875,   28.8976479,           0.
   3063,   22.9188232,   28.8976479,           0.
   3064,   23.4170589,   28.8976479,           0.
   3065,   23.9152946,   28.8976479,           0.
   3066,   24.4135303,   28.8976479,           0.
   3067,   24.9117641,   28.8976479,           0.
   3068,   25.4099998,   28.8976479,           0.
   3069,           0.,   29.3958817,           0.
   3070,  0.498235285,   29.3958817,           0.
   3071,  0.996470571,   29.3958817,           0.
   3072,   1.49470592,   29.3958817,           0.
   3073,   1.99294114,   29.3958817,           0.
   3074,   2.49117637,   29.3958817,           0.
   3075,   2.98941183,   29.3958817,           0.
   3076,   3.48764706,   29.3958817,           0.
   3077,   3.98588228,   29.3958817,           0.
   3078,   4.48411751,   29.3958817,           0.
   3079,   4.98235273,   29.3958817,           0.
   3080,   5.48058844,   29.3958817,           0.
   3081,   5.97882366,   29.3958817,           0.
   3082,   6.47705889,   29.3958817,           0.
   3083,   6.97529411,   29.3958817,           0.
   3084,   7.47352934,   29.3958817,           0.
   3085,   7.97176456,   29.3958817,           0.
   3086,   8.47000027,   29.3958817,           0.
   3087,   8.96823502,   29.3958817,           0.
   3088,   9.46647072,   29.3958817,           0.
   3089,   9.96470547,   29.3958817,           0.
   3090,   10.4629412,   29.3958817,           0.
   3091,   10.9611769,   29.3958817,           0.
   3092,   11.4594116,   29.3958817,           0.
   3093,   11.9576473,   29.3958817,           0.
   3094,   12.4558821,   29.3958817,           0.
   3095,   12.9541178,   29.3958817,           0.
   3096,   13.4523525,   29.3958817,           0.
   3097,   13.9505882,   29.3958817,           0.
   3098,   14.4488239,   29.3958817,           0.
   3099,   14.9470587,   29.3958817,           0.
   3100,   15.4452944,   29.3958817,           0.
   3101,   15.9435291,   29.3958817,           0.
   3102,   16.4417648,   29.3958817,           0.
   3103,   16.9400005,   29.3958817,           0.
   3104,   17.4382362,   29.3958817,           0.
   3105,     17.93647,   29.3958817,           0.
   3106,   18.4347057,   29.3958817,           0.
   3107,   18.9329414,   29.3958817,           0.
   3108,   19.4311771,   29.3958817,           0.
   3109,   19.9294109,   29.3958817,           0.
   3110,   20.4276466,   29.3958817,           0.
   3111,   20.9258823,   29.3958817,           0.
   3112,    21.424118,   29.3958817,           0.
   3113,   21.9223537,   29.3958817,           0.
   3114,   22.4205875,   29.3958817,           0.
   3115,   22.9188232,   29.3958817,           0.
   3116,   23.4170589,   29.3958817,           0.
   3117,   23.9152946,   29.3958817,           0.
   3118,   24.4135303,   29.3958817,           0.
   3119,   24.9117641,   29.3958817,           0.
   3120,   25.4099998,   29.3958817,           0.
   3121,           0.,   29.8941174,           0.
   3122,  0.498235285,   29.8941174,           0.
   3123,  0.996470571,   29.8941174,           0.
   3124,   1.49470592,   29.8941174,           0.
   3125,   1.99294114,   29.8941174,           0.
   3126,   2.49117637,   29.8941174,           0.
   3127,   2.98941183,   29.8941174,           0.
   3128,   3.48764706,   29.8941174,           0.
   3129,   3.98588228,   29.8941174,           0.
   3130,   4.48411751,   29.8941174,           0.
   3131,   4.98235273,   29.8941174,           0.
   3132,   5.48058844,   29.8941174,           0.
   3133,   5.97882366,   29.8941174,           0.
   3134,   6.47705889,   29.8941174,           0.
   3135,   6.97529411,   29.8941174,           0.
   3136,   7.47352934,   29.8941174,           0.
   3137,   7.97176456,   29.8941174,           0.
   3138,   8.47000027,   29.8941174,           0.
   3139,   8.96823502,   29.8941174,           0.
   3140,   9.46647072,   29.8941174,           0.
   3141,   9.96470547,   29.8941174,           0.
   3142,   10.4629412,   29.8941174,           0.
   3143,   10.9611769,   29.8941174,           0.
   3144,   11.4594116,   29.8941174,           0.
   3145,   11.9576473,   29.8941174,           0.
   3146,   12.4558821,   29.8941174,           0.
   3147,   12.9541178,   29.8941174,           0.
   3148,   13.4523525,   29.8941174,           0.
   3149,   13.9505882,   29.8941174,           0.
   3150,   14.4488239,   29.8941174,           0.
   3151,   14.9470587,   29.8941174,           0.
   3152,   15.4452944,   29.8941174,           0.
   3153,   15.9435291,   29.8941174,           0.
   3154,   16.4417648,   29.8941174,           0.
   3155,   16.9400005,   29.8941174,           0.
   3156,   17.4382362,   29.8941174,           0.
   3157,     17.93647,   29.8941174,           0.
   3158,   18.4347057,   29.8941174,           0.
   3159,   18.9329414,   29.8941174,           0.
   3160,   19.4311771,   29.8941174,           0.
   3161,   19.9294109,   29.8941174,           0.
   3162,   20.4276466,   29.8941174,           0.
   3163,   20.9258823,   29.8941174,           0.
   3164,    21.424118,   29.8941174,           0.
   3165,   21.9223537,   29.8941174,           0.
   3166,   22.4205875,   29.8941174,           0.
   3167,   22.9188232,   29.8941174,           0.
   3168,   23.4170589,   29.8941174,           0.
   3169,   23.9152946,   29.8941174,           0.
   3170,   24.4135303,   29.8941174,           0.
   3171,   24.9117641,   29.8941174,           0.
   3172,   25.4099998,   29.8941174,           0.
   3173,           0.,   30.3923531,           0.
   3174,  0.498235285,   30.3923531,           0.
   3175,  0.996470571,   30.3923531,           0.
   3176,   1.49470592,   30.3923531,           0.
   3177,   1.99294114,   30.3923531,           0.
   3178,   2.49117637,   30.3923531,           0.
   3179,   2.98941183,   30.3923531,           0.
   3180,   3.48764706,   30.3923531,           0.
   3181,   3.98588228,   30.3923531,           0.
   3182,   4.48411751,   30.3923531,           0.
   3183,   4.98235273,   30.3923531,           0.
   3184,   5.48058844,   30.3923531,           0.
   3185,   5.97882366,   30.3923531,           0.
   3186,   6.47705889,   30.3923531,           0.
   3187,   6.97529411,   30.3923531,           0.
   3188,   7.47352934,   30.3923531,           0.
   3189,   7.97176456,   30.3923531,           0.
   3190,   8.47000027,   30.3923531,           0.
   3191,   8.96823502,   30.3923531,           0.
   3192,   9.46647072,   30.3923531,           0.
   3193,   9.96470547,   30.3923531,           0.
   3194,   10.4629412,   30.3923531,           0.
   3195,   10.9611769,   30.3923531,           0.
   3196,   11.4594116,   30.3923531,           0.
   3197,   11.9576473,   30.3923531,           0.
   3198,   12.4558821,   30.3923531,           0.
   3199,   12.9541178,   30.3923531,           0.
   3200,   13.4523525,   30.3923531,           0.
   3201,   13.9505882,   30.3923531,           0.
   3202,   14.4488239,   30.3923531,           0.
   3203,   14.9470587,   30.3923531,           0.
   3204,   15.4452944,   30.3923531,           0.
   3205,   15.9435291,   30.3923531,           0.
   3206,   16.4417648,   30.3923531,           0.
   3207,   16.9400005,   30.3923531,           0.
   3208,   17.4382362,   30.3923531,           0.
   3209,     17.93647,   30.3923531,           0.
   3210,   18.4347057,   30.3923531,           0.
   3211,   18.9329414,   30.3923531,           0.
   3212,   19.4311771,   30.3923531,           0.
   3213,   19.9294109,   30.3923531,           0.
   3214,   20.4276466,   30.3923531,           0.
   3215,   20.9258823,   30.3923531,           0.
   3216,    21.424118,   30.3923531,           0.
   3217,   21.9223537,   30.3923531,           0.
   3218,   22.4205875,   30.3923531,           0.
   3219,   22.9188232,   30.3923531,           0.
   3220,   23.4170589,   30.3923531,           0.
   3221,   23.9152946,   30.3923531,           0.
   3222,   24.4135303,   30.3923531,           0.
   3223,   24.9117641,   30.3923531,           0.
   3224,   25.4099998,   30.3923531,           0.
   3225,           0.,   30.8905888,           0.
   3226,  0.498235285,   30.8905888,           0.
   3227,  0.996470571,   30.8905888,           0.
   3228,   1.49470592,   30.8905888,           0.
   3229,   1.99294114,   30.8905888,           0.
   3230,   2.49117637,   30.8905888,           0.
   3231,   2.98941183,   30.8905888,           0.
   3232,   3.48764706,   30.8905888,           0.
   3233,   3.98588228,   30.8905888,           0.
   3234,   4.48411751,   30.8905888,           0.
   3235,   4.98235273,   30.8905888,           0.
   3236,   5.48058844,   30.8905888,           0.
   3237,   5.97882366,   30.8905888,           0.
   3238,   6.47705889,   30.8905888,           0.
   3239,   6.97529411,   30.8905888,           0.
   3240,   7.47352934,   30.8905888,           0.
   3241,   7.97176456,   30.8905888,           0.
   3242,   8.47000027,   30.8905888,           0.
   3243,   8.96823502,   30.8905888,           0.
   3244,   9.46647072,   30.8905888,           0.
   3245,   9.96470547,   30.8905888,           0.
   3246,   10.4629412,   30.8905888,           0.
   3247,   10.9611769,   30.8905888,           0.
   3248,   11.4594116,   30.8905888,           0.
   3249,   11.9576473,   30.8905888,           0.
   3250,   12.4558821,   30.8905888,           0.
   3251,   12.9541178,   30.8905888,           0.
   3252,   13.4523525,   30.8905888,           0.
   3253,   13.9505882,   30.8905888,           0.
   3254,   14.4488239,   30.8905888,           0.
   3255,   14.9470587,   30.8905888,           0.
   3256,   15.4452944,   30.8905888,           0.
   3257,   15.9435291,   30.8905888,           0.
   3258,   16.4417648,   30.8905888,           0.
   3259,   16.9400005,   30.8905888,           0.
   3260,   17.4382362,   30.8905888,           0.
   3261,     17.93647,   30.8905888,           0.
   3262,   18.4347057,   30.8905888,           0.
   3263,   18.9329414,   30.8905888,           0.
   3264,   19.4311771,   30.8905888,           0.
   3265,   19.9294109,   30.8905888,           0.
   3266,   20.4276466,   30.8905888,           0.
   3267,   20.9258823,   30.8905888,           0.
   3268,    21.424118,   30.8905888,           0.
   3269,   21.9223537,   30.8905888,           0.
   3270,   22.4205875,   30.8905888,           0.
   3271,   22.9188232,   30.8905888,           0.
   3272,   23.4170589,   30.8905888,           0.
   3273,   23.9152946,   30.8905888,           0.
   3274,   24.4135303,   30.8905888,           0.
   3275,   24.9117641,   30.8905888,           0.
   3276,   25.4099998,   30.8905888,           0.
   3277,           0.,   31.3888245,           0.
   3278,  0.498235285,   31.3888245,           0.
   3279,  0.996470571,   31.3888245,           0.
   3280,   1.49470592,   31.3888245,           0.
   3281,   1.99294114,   31.3888245,           0.
   3282,   2.49117637,   31.3888245,           0.
   3283,   2.98941183,   31.3888245,           0.
   3284,   3.48764706,   31.3888245,           0.
   3285,   3.98588228,   31.3888245,           0.
   3286,   4.48411751,   31.3888245,           0.
   3287,   4.98235273,   31.3888245,           0.
   3288,   5.48058844,   31.3888245,           0.
   3289,   5.97882366,   31.3888245,           0.
   3290,   6.47705889,   31.3888245,           0.
   3291,   6.97529411,   31.3888245,           0.
   3292,   7.47352934,   31.3888245,           0.
   3293,   7.97176456,   31.3888245,           0.
   3294,   8.47000027,   31.3888245,           0.
   3295,   8.96823502,   31.3888245,           0.
   3296,   9.46647072,   31.3888245,           0.
   3297,   9.96470547,   31.3888245,           0.
   3298,   10.4629412,   31.3888245,           0.
   3299,   10.9611769,   31.3888245,           0.
   3300,   11.4594116,   31.3888245,           0.
   3301,   11.9576473,   31.3888245,           0.
   3302,   12.4558821,   31.3888245,           0.
   3303,   12.9541178,   31.3888245,           0.
   3304,   13.4523525,   31.3888245,           0.
   3305,   13.9505882,   31.3888245,           0.
   3306,   14.4488239,   31.3888245,           0.
   3307,   14.9470587,   31.3888245,           0.
   3308,   15.4452944,   31.3888245,           0.
   3309,   15.9435291,   31.3888245,           0.
   3310,   16.4417648,   31.3888245,           0.
   3311,   16.9400005,   31.3888245,           0.
   3312,   17.4382362,   31.3888245,           0.
   3313,     17.93647,   31.3888245,           0.
   3314,   18.4347057,   31.3888245,           0.
   3315,   18.9329414,   31.3888245,           0.
   3316,   19.4311771,   31.3888245,           0.
   3317,   19.9294109,   31.3888245,           0.
   3318,   20.4276466,   31.3888245,           0.
   3319,   20.9258823,   31.3888245,           0.
   3320,    21.424118,   31.3888245,           0.
   3321,   21.9223537,   31.3888245,           0.
   3322,   22.4205875,   31.3888245,           0.
   3323,   22.9188232,   31.3888245,           0.
   3324,   23.4170589,   31.3888245,           0.
   3325,   23.9152946,   31.3888245,           0.
   3326,   24.4135303,   31.3888245,           0.
   3327,   24.9117641,   31.3888245,           0.
   3328,   25.4099998,   31.3888245,           0.
   3329,           0.,   31.8870583,           0.
   3330,  0.498235285,   31.8870583,           0.
   3331,  0.996470571,   31.8870583,           0.
   3332,   1.49470592,   31.8870583,           0.
   3333,   1.99294114,   31.8870583,           0.
   3334,   2.49117637,   31.8870583,           0.
   3335,   2.98941183,   31.8870583,           0.
   3336,   3.48764706,   31.8870583,           0.
   3337,   3.98588228,   31.8870583,           0.
   3338,   4.48411751,   31.8870583,           0.
   3339,   4.98235273,   31.8870583,           0.
   3340,   5.48058844,   31.8870583,           0.
   3341,   5.97882366,   31.8870583,           0.
   3342,   6.47705889,   31.8870583,           0.
   3343,   6.97529411,   31.8870583,           0.
   3344,   7.47352934,   31.8870583,           0.
   3345,   7.97176456,   31.8870583,           0.
   3346,   8.47000027,   31.8870583,           0.
   3347,   8.96823502,   31.8870583,           0.
   3348,   9.46647072,   31.8870583,           0.
   3349,   9.96470547,   31.8870583,           0.
   3350,   10.4629412,   31.8870583,           0.
   3351,   10.9611769,   31.8870583,           0.
   3352,   11.4594116,   31.8870583,           0.
   3353,   11.9576473,   31.8870583,           0.
   3354,   12.4558821,   31.8870583,           0.
   3355,   12.9541178,   31.8870583,           0.
   3356,   13.4523525,   31.8870583,           0.
   3357,   13.9505882,   31.8870583,           0.
   3358,   14.4488239,   31.8870583,           0.
   3359,   14.9470587,   31.8870583,           0.
   3360,   15.4452944,   31.8870583,           0.
   3361,   15.9435291,   31.8870583,           0.
   3362,   16.4417648,   31.8870583,           0.
   3363,   16.9400005,   31.8870583,           0.
   3364,   17.4382362,   31.8870583,           0.
   3365,     17.93647,   31.8870583,           0.
   3366,   18.4347057,   31.8870583,           0.
   3367,   18.9329414,   31.8870583,           0.
   3368,   19.4311771,   31.8870583,           0.
   3369,   19.9294109,   31.8870583,           0.
   3370,   20.4276466,   31.8870583,           0.
   3371,   20.9258823,   31.8870583,           0.
   3372,    21.424118,   31.8870583,           0.
   3373,   21.9223537,   31.8870583,           0.
   3374,   22.4205875,   31.8870583,           0.
   3375,   22.9188232,   31.8870583,           0.
   3376,   23.4170589,   31.8870583,           0.
   3377,   23.9152946,   31.8870583,           0.
   3378,   24.4135303,   31.8870583,           0.
   3379,   24.9117641,   31.8870583,           0.
   3380,   25.4099998,   31.8870583,           0.
   3381,           0.,   32.3852959,           0.
   3382,  0.498235285,   32.3852959,           0.
   3383,  0.996470571,   32.3852959,           0.
   3384,   1.49470592,   32.3852959,           0.
   3385,   1.99294114,   32.3852959,           0.
   3386,   2.49117637,   32.3852959,           0.
   3387,   2.98941183,   32.3852959,           0.
   3388,   3.48764706,   32.3852959,           0.
   3389,   3.98588228,   32.3852959,           0.
   3390,   4.48411751,   32.3852959,           0.
   3391,   4.98235273,   32.3852959,           0.
   3392,   5.48058844,   32.3852959,           0.
   3393,   5.97882366,   32.3852959,           0.
   3394,   6.47705889,   32.3852959,           0.
   3395,   6.97529411,   32.3852959,           0.
   3396,   7.47352934,   32.3852959,           0.
   3397,   7.97176456,   32.3852959,           0.
   3398,   8.47000027,   32.3852959,           0.
   3399,   8.96823502,   32.3852959,           0.
   3400,   9.46647072,   32.3852959,           0.
   3401,   9.96470547,   32.3852959,           0.
   3402,   10.4629412,   32.3852959,           0.
   3403,   10.9611769,   32.3852959,           0.
   3404,   11.4594116,   32.3852959,           0.
   3405,   11.9576473,   32.3852959,           0.
   3406,   12.4558821,   32.3852959,           0.
   3407,   12.9541178,   32.3852959,           0.
   3408,   13.4523525,   32.3852959,           0.
   3409,   13.9505882,   32.3852959,           0.
   3410,   14.4488239,   32.3852959,           0.
   3411,   14.9470587,   32.3852959,           0.
   3412,   15.4452944,   32.3852959,           0.
   3413,   15.9435291,   32.3852959,           0.
   3414,   16.4417648,   32.3852959,           0.
   3415,   16.9400005,   32.3852959,           0.
   3416,   17.4382362,   32.3852959,           0.
   3417,     17.93647,   32.3852959,           0.
   3418,   18.4347057,   32.3852959,           0.
   3419,   18.9329414,   32.3852959,           0.
   3420,   19.4311771,   32.3852959,           0.
   3421,   19.9294109,   32.3852959,           0.
   3422,   20.4276466,   32.3852959,           0.
   3423,   20.9258823,   32.3852959,           0.
   3424,    21.424118,   32.3852959,           0.
   3425,   21.9223537,   32.3852959,           0.
   3426,   22.4205875,   32.3852959,           0.
   3427,   22.9188232,   32.3852959,           0.
   3428,   23.4170589,   32.3852959,           0.
   3429,   23.9152946,   32.3852959,           0.
   3430,   24.4135303,   32.3852959,           0.
   3431,   24.9117641,   32.3852959,           0.
   3432,   25.4099998,   32.3852959,           0.
   3433,           0.,   32.8835297,           0.
   3434,  0.498235285,   32.8835297,           0.
   3435,  0.996470571,   32.8835297,           0.
   3436,   1.49470592,   32.8835297,           0.
   3437,   1.99294114,   32.8835297,           0.
   3438,   2.49117637,   32.8835297,           0.
   3439,   2.98941183,   32.8835297,           0.
   3440,   3.48764706,   32.8835297,           0.
   3441,   3.98588228,   32.8835297,           0.
   3442,   4.48411751,   32.8835297,           0.
   3443,   4.98235273,   32.8835297,           0.
   3444,   5.48058844,   32.8835297,           0.
   3445,   5.97882366,   32.8835297,           0.
   3446,   6.47705889,   32.8835297,           0.
   3447,   6.97529411,   32.8835297,           0.
   3448,   7.47352934,   32.8835297,           0.
   3449,   7.97176456,   32.8835297,           0.
   3450,   8.47000027,   32.8835297,           0.
   3451,   8.96823502,   32.8835297,           0.
   3452,   9.46647072,   32.8835297,           0.
   3453,   9.96470547,   32.8835297,           0.
   3454,   10.4629412,   32.8835297,           0.
   3455,   10.9611769,   32.8835297,           0.
   3456,   11.4594116,   32.8835297,           0.
   3457,   11.9576473,   32.8835297,           0.
   3458,   12.4558821,   32.8835297,           0.
   3459,   12.9541178,   32.8835297,           0.
   3460,   13.4523525,   32.8835297,           0.
   3461,   13.9505882,   32.8835297,           0.
   3462,   14.4488239,   32.8835297,           0.
   3463,   14.9470587,   32.8835297,           0.
   3464,   15.4452944,   32.8835297,           0.
   3465,   15.9435291,   32.8835297,           0.
   3466,   16.4417648,   32.8835297,           0.
   3467,   16.9400005,   32.8835297,           0.
   3468,   17.4382362,   32.8835297,           0.
   3469,     17.93647,   32.8835297,           0.
   3470,   18.4347057,   32.8835297,           0.
   3471,   18.9329414,   32.8835297,           0.
   3472,   19.4311771,   32.8835297,           0.
   3473,   19.9294109,   32.8835297,           0.
   3474,   20.4276466,   32.8835297,           0.
   3475,   20.9258823,   32.8835297,           0.
   3476,    21.424118,   32.8835297,           0.
   3477,   21.9223537,   32.8835297,           0.
   3478,   22.4205875,   32.8835297,           0.
   3479,   22.9188232,   32.8835297,           0.
   3480,   23.4170589,   32.8835297,           0.
   3481,   23.9152946,   32.8835297,           0.
   3482,   24.4135303,   32.8835297,           0.
   3483,   24.9117641,   32.8835297,           0.
   3484,   25.4099998,   32.8835297,           0.
   3485,           0.,   33.3817635,           0.
   3486,  0.498235285,   33.3817635,           0.
   3487,  0.996470571,   33.3817635,           0.
   3488,   1.49470592,   33.3817635,           0.
   3489,   1.99294114,   33.3817635,           0.
   3490,   2.49117637,   33.3817635,           0.
   3491,   2.98941183,   33.3817635,           0.
   3492,   3.48764706,   33.3817635,           0.
   3493,   3.98588228,   33.3817635,           0.
   3494,   4.48411751,   33.3817635,           0.
   3495,   4.98235273,   33.3817635,           0.
   3496,   5.48058844,   33.3817635,           0.
   3497,   5.97882366,   33.3817635,           0.
   3498,   6.47705889,   33.3817635,           0.
   3499,   6.97529411,   33.3817635,           0.
   3500,   7.47352934,   33.3817635,           0.
   3501,   7.97176456,   33.3817635,           0.
   3502,   8.47000027,   33.3817635,           0.
   3503,   8.96823502,   33.3817635,           0.
   3504,   9.46647072,   33.3817635,           0.
   3505,   9.96470547,   33.3817635,           0.
   3506,   10.4629412,   33.3817635,           0.
   3507,   10.9611769,   33.3817635,           0.
   3508,   11.4594116,   33.3817635,           0.
   3509,   11.9576473,   33.3817635,           0.
   3510,   12.4558821,   33.3817635,           0.
   3511,   12.9541178,   33.3817635,           0.
   3512,   13.4523525,   33.3817635,           0.
   3513,   13.9505882,   33.3817635,           0.
   3514,   14.4488239,   33.3817635,           0.
   3515,   14.9470587,   33.3817635,           0.
   3516,   15.4452944,   33.3817635,           0.
   3517,   15.9435291,   33.3817635,           0.
   3518,   16.4417648,   33.3817635,           0.
   3519,   16.9400005,   33.3817635,           0.
   3520,   17.4382362,   33.3817635,           0.
   3521,     17.93647,   33.3817635,           0.
   3522,   18.4347057,   33.3817635,           0.
   3523,   18.9329414,   33.3817635,           0.
   3524,   19.4311771,   33.3817635,           0.
   3525,   19.9294109,   33.3817635,           0.
   3526,   20.4276466,   33.3817635,           0.
   3527,   20.9258823,   33.3817635,           0.
   3528,    21.424118,   33.3817635,           0.
   3529,   21.9223537,   33.3817635,           0.
   3530,   22.4205875,   33.3817635,           0.
   3531,   22.9188232,   33.3817635,           0.
   3532,   23.4170589,   33.3817635,           0.
   3533,   23.9152946,   33.3817635,           0.
   3534,   24.4135303,   33.3817635,           0.
   3535,   24.9117641,   33.3817635,           0.
   3536,   25.4099998,   33.3817635,           0.
   3537,           0.,   33.8800011,           0.
   3538,  0.498235285,   33.8800011,           0.
   3539,  0.996470571,   33.8800011,           0.
   3540,   1.49470592,   33.8800011,           0.
   3541,   1.99294114,   33.8800011,           0.
   3542,   2.49117637,   33.8800011,           0.
   3543,   2.98941183,   33.8800011,           0.
   3544,   3.48764706,   33.8800011,           0.
   3545,   3.98588228,   33.8800011,           0.
   3546,   4.48411751,   33.8800011,           0.
   3547,   4.98235273,   33.8800011,           0.
   3548,   5.48058844,   33.8800011,           0.
   3549,   5.97882366,   33.8800011,           0.
   3550,   6.47705889,   33.8800011,           0.
   3551,   6.97529411,   33.8800011,           0.
   3552,   7.47352934,   33.8800011,           0.
   3553,   7.97176456,   33.8800011,           0.
   3554,   8.47000027,   33.8800011,           0.
   3555,   8.96823502,   33.8800011,           0.
   3556,   9.46647072,   33.8800011,           0.
   3557,   9.96470547,   33.8800011,           0.
   3558,   10.4629412,   33.8800011,           0.
   3559,   10.9611769,   33.8800011,           0.
   3560,   11.4594116,   33.8800011,           0.
   3561,   11.9576473,   33.8800011,           0.
   3562,   12.4558821,   33.8800011,           0.
   3563,   12.9541178,   33.8800011,           0.
   3564,   13.4523525,   33.8800011,           0.
   3565,   13.9505882,   33.8800011,           0.
   3566,   14.4488239,   33.8800011,           0.
   3567,   14.9470587,   33.8800011,           0.
   3568,   15.4452944,   33.8800011,           0.
   3569,   15.9435291,   33.8800011,           0.
   3570,   16.4417648,   33.8800011,           0.
   3571,   16.9400005,   33.8800011,           0.
   3572,   17.4382362,   33.8800011,           0.
   3573,     17.93647,   33.8800011,           0.
   3574,   18.4347057,   33.8800011,           0.
   3575,   18.9329414,   33.8800011,           0.
   3576,   19.4311771,   33.8800011,           0.
   3577,   19.9294109,   33.8800011,           0.
   3578,   20.4276466,   33.8800011,           0.
   3579,   20.9258823,   33.8800011,           0.
   3580,    21.424118,   33.8800011,           0.
   3581,   21.9223537,   33.8800011,           0.
   3582,   22.4205875,   33.8800011,           0.
   3583,   22.9188232,   33.8800011,           0.
   3584,   23.4170589,   33.8800011,           0.
   3585,   23.9152946,   33.8800011,           0.
   3586,   24.4135303,   33.8800011,           0.
   3587,   24.9117641,   33.8800011,           0.
   3588,   25.4099998,   33.8800011,           0.
   3589,           0.,   34.3782349,           0.
   3590,  0.498235285,   34.3782349,           0.
   3591,  0.996470571,   34.3782349,           0.
   3592,   1.49470592,   34.3782349,           0.
   3593,   1.99294114,   34.3782349,           0.
   3594,   2.49117637,   34.3782349,           0.
   3595,   2.98941183,   34.3782349,           0.
   3596,   3.48764706,   34.3782349,           0.
   3597,   3.98588228,   34.3782349,           0.
   3598,   4.48411751,   34.3782349,           0.
   3599,   4.98235273,   34.3782349,           0.
   3600,   5.48058844,   34.3782349,           0.
   3601,   5.97882366,   34.3782349,           0.
   3602,   6.47705889,   34.3782349,           0.
   3603,   6.97529411,   34.3782349,           0.
   3604,   7.47352934,   34.3782349,           0.
   3605,   7.97176456,   34.3782349,           0.
   3606,   8.47000027,   34.3782349,           0.
   3607,   8.96823502,   34.3782349,           0.
   3608,   9.46647072,   34.3782349,           0.
   3609,   9.96470547,   34.3782349,           0.
   3610,   10.4629412,   34.3782349,           0.
   3611,   10.9611769,   34.3782349,           0.
   3612,   11.4594116,   34.3782349,           0.
   3613,   11.9576473,   34.3782349,           0.
   3614,   12.4558821,   34.3782349,           0.
   3615,   12.9541178,   34.3782349,           0.
   3616,   13.4523525,   34.3782349,           0.
   3617,   13.9505882,   34.3782349,           0.
   3618,   14.4488239,   34.3782349,           0.
   3619,   14.9470587,   34.3782349,           0.
   3620,   15.4452944,   34.3782349,           0.
   3621,   15.9435291,   34.3782349,           0.
   3622,   16.4417648,   34.3782349,           0.
   3623,   16.9400005,   34.3782349,           0.
   3624,   17.4382362,   34.3782349,           0.
   3625,     17.93647,   34.3782349,           0.
   3626,   18.4347057,   34.3782349,           0.
   3627,   18.9329414,   34.3782349,           0.
   3628,   19.4311771,   34.3782349,           0.
   3629,   19.9294109,   34.3782349,           0.
   3630,   20.4276466,   34.3782349,           0.
   3631,   20.9258823,   34.3782349,           0.
   3632,    21.424118,   34.3782349,           0.
   3633,   21.9223537,   34.3782349,           0.
   3634,   22.4205875,   34.3782349,           0.
   3635,   22.9188232,   34.3782349,           0.
   3636,   23.4170589,   34.3782349,           0.
   3637,   23.9152946,   34.3782349,           0.
   3638,   24.4135303,   34.3782349,           0.
   3639,   24.9117641,   34.3782349,           0.
   3640,   25.4099998,   34.3782349,           0.
   3641,           0.,   34.8764725,           0.
   3642,  0.498235285,   34.8764725,           0.
   3643,  0.996470571,   34.8764725,           0.
   3644,   1.49470592,   34.8764725,           0.
   3645,   1.99294114,   34.8764725,           0.
   3646,   2.49117637,   34.8764725,           0.
   3647,   2.98941183,   34.8764725,           0.
   3648,   3.48764706,   34.8764725,           0.
   3649,   3.98588228,   34.8764725,           0.
   3650,   4.48411751,   34.8764725,           0.
   3651,   4.98235273,   34.8764725,           0.
   3652,   5.48058844,   34.8764725,           0.
   3653,   5.97882366,   34.8764725,           0.
   3654,   6.47705889,   34.8764725,           0.
   3655,   6.97529411,   34.8764725,           0.
   3656,   7.47352934,   34.8764725,           0.
   3657,   7.97176456,   34.8764725,           0.
   3658,   8.47000027,   34.8764725,           0.
   3659,   8.96823502,   34.8764725,           0.
   3660,   9.46647072,   34.8764725,           0.
   3661,   9.96470547,   34.8764725,           0.
   3662,   10.4629412,   34.8764725,           0.
   3663,   10.9611769,   34.8764725,           0.
   3664,   11.4594116,   34.8764725,           0.
   3665,   11.9576473,   34.8764725,           0.
   3666,   12.4558821,   34.8764725,           0.
   3667,   12.9541178,   34.8764725,           0.
   3668,   13.4523525,   34.8764725,           0.
   3669,   13.9505882,   34.8764725,           0.
   3670,   14.4488239,   34.8764725,           0.
   3671,   14.9470587,   34.8764725,           0.
   3672,   15.4452944,   34.8764725,           0.
   3673,   15.9435291,   34.8764725,           0.
   3674,   16.4417648,   34.8764725,           0.
   3675,   16.9400005,   34.8764725,           0.
   3676,   17.4382362,   34.8764725,           0.
   3677,     17.93647,   34.8764725,           0.
   3678,   18.4347057,   34.8764725,           0.
   3679,   18.9329414,   34.8764725,           0.
   3680,   19.4311771,   34.8764725,           0.
   3681,   19.9294109,   34.8764725,           0.
   3682,   20.4276466,   34.8764725,           0.
   3683,   20.9258823,   34.8764725,           0.
   3684,    21.424118,   34.8764725,           0.
   3685,   21.9223537,   34.8764725,           0.
   3686,   22.4205875,   34.8764725,           0.
   3687,   22.9188232,   34.8764725,           0.
   3688,   23.4170589,   34.8764725,           0.
   3689,   23.9152946,   34.8764725,           0.
   3690,   24.4135303,   34.8764725,           0.
   3691,   24.9117641,   34.8764725,           0.
   3692,   25.4099998,   34.8764725,           0.
   3693,           0.,   35.3747063,           0.
   3694,  0.498235285,   35.3747063,           0.
   3695,  0.996470571,   35.3747063,           0.
   3696,   1.49470592,   35.3747063,           0.
   3697,   1.99294114,   35.3747063,           0.
   3698,   2.49117637,   35.3747063,           0.
   3699,   2.98941183,   35.3747063,           0.
   3700,   3.48764706,   35.3747063,           0.
   3701,   3.98588228,   35.3747063,           0.
   3702,   4.48411751,   35.3747063,           0.
   3703,   4.98235273,   35.3747063,           0.
   3704,   5.48058844,   35.3747063,           0.
   3705,   5.97882366,   35.3747063,           0.
   3706,   6.47705889,   35.3747063,           0.
   3707,   6.97529411,   35.3747063,           0.
   3708,   7.47352934,   35.3747063,           0.
   3709,   7.97176456,   35.3747063,           0.
   3710,   8.47000027,   35.3747063,           0.
   3711,   8.96823502,   35.3747063,           0.
   3712,   9.46647072,   35.3747063,           0.
   3713,   9.96470547,   35.3747063,           0.
   3714,   10.4629412,   35.3747063,           0.
   3715,   10.9611769,   35.3747063,           0.
   3716,   11.4594116,   35.3747063,           0.
   3717,   11.9576473,   35.3747063,           0.
   3718,   12.4558821,   35.3747063,           0.
   3719,   12.9541178,   35.3747063,           0.
   3720,   13.4523525,   35.3747063,           0.
   3721,   13.9505882,   35.3747063,           0.
   3722,   14.4488239,   35.3747063,           0.
   3723,   14.9470587,   35.3747063,           0.
   3724,   15.4452944,   35.3747063,           0.
   3725,   15.9435291,   35.3747063,           0.
   3726,   16.4417648,   35.3747063,           0.
   3727,   16.9400005,   35.3747063,           0.
   3728,   17.4382362,   35.3747063,           0.
   3729,     17.93647,   35.3747063,           0.
   3730,   18.4347057,   35.3747063,           0.
   3731,   18.9329414,   35.3747063,           0.
   3732,   19.4311771,   35.3747063,           0.
   3733,   19.9294109,   35.3747063,           0.
   3734,   20.4276466,   35.3747063,           0.
   3735,   20.9258823,   35.3747063,           0.
   3736,    21.424118,   35.3747063,           0.
   3737,   21.9223537,   35.3747063,           0.
   3738,   22.4205875,   35.3747063,           0.
   3739,   22.9188232,   35.3747063,           0.
   3740,   23.4170589,   35.3747063,           0.
   3741,   23.9152946,   35.3747063,           0.
   3742,   24.4135303,   35.3747063,           0.
   3743,   24.9117641,   35.3747063,           0.
   3744,   25.4099998,   35.3747063,           0.
   3745,           0.,   35.8729401,           0.
   3746,  0.498235285,   35.8729401,           0.
   3747,  0.996470571,   35.8729401,           0.
   3748,   1.49470592,   35.8729401,           0.
   3749,   1.99294114,   35.8729401,           0.
   3750,   2.49117637,   35.8729401,           0.
   3751,   2.98941183,   35.8729401,           0.
   3752,   3.48764706,   35.8729401,           0.
   3753,   3.98588228,   35.8729401,           0.
   3754,   4.48411751,   35.8729401,           0.
   3755,   4.98235273,   35.8729401,           0.
   3756,   5.48058844,   35.8729401,           0.
   3757,   5.97882366,   35.8729401,           0.
   3758,   6.47705889,   35.8729401,           0.
   3759,   6.97529411,   35.8729401,           0.
   3760,   7.47352934,   35.8729401,           0.
   3761,   7.97176456,   35.8729401,           0.
   3762,   8.47000027,   35.8729401,           0.
   3763,   8.96823502,   35.8729401,           0.
   3764,   9.46647072,   35.8729401,           0.
   3765,   9.96470547,   35.8729401,           0.
   3766,   10.4629412,   35.8729401,           0.
   3767,   10.9611769,   35.8729401,           0.
   3768,   11.4594116,   35.8729401,           0.
   3769,   11.9576473,   35.8729401,           0.
   3770,   12.4558821,   35.8729401,           0.
   3771,   12.9541178,   35.8729401,           0.
   3772,   13.4523525,   35.8729401,           0.
   3773,   13.9505882,   35.8729401,           0.
   3774,   14.4488239,   35.8729401,           0.
   3775,   14.9470587,   35.8729401,           0.
   3776,   15.4452944,   35.8729401,           0.
   3777,   15.9435291,   35.8729401,           0.
   3778,   16.4417648,   35.8729401,           0.
   3779,   16.9400005,   35.8729401,           0.
   3780,   17.4382362,   35.8729401,           0.
   3781,     17.93647,   35.8729401,           0.
   3782,   18.4347057,   35.8729401,           0.
   3783,   18.9329414,   35.8729401,           0.
   3784,   19.4311771,   35.8729401,           0.
   3785,   19.9294109,   35.8729401,           0.
   3786,   20.4276466,   35.8729401,           0.
   3787,   20.9258823,   35.8729401,           0.
   3788,    21.424118,   35.8729401,           0.
   3789,   21.9223537,   35.8729401,           0.
   3790,   22.4205875,   35.8729401,           0.
   3791,   22.9188232,   35.8729401,           0.
   3792,   23.4170589,   35.8729401,           0.
   3793,   23.9152946,   35.8729401,           0.
   3794,   24.4135303,   35.8729401,           0.
   3795,   24.9117641,   35.8729401,           0.
   3796,   25.4099998,   35.8729401,           0.
   3797,           0.,   36.3711777,           0.
   3798,  0.498235285,   36.3711777,           0.
   3799,  0.996470571,   36.3711777,           0.
   3800,   1.49470592,   36.3711777,           0.
   3801,   1.99294114,   36.3711777,           0.
   3802,   2.49117637,   36.3711777,           0.
   3803,   2.98941183,   36.3711777,           0.
   3804,   3.48764706,   36.3711777,           0.
   3805,   3.98588228,   36.3711777,           0.
   3806,   4.48411751,   36.3711777,           0.
   3807,   4.98235273,   36.3711777,           0.
   3808,   5.48058844,   36.3711777,           0.
   3809,   5.97882366,   36.3711777,           0.
   3810,   6.47705889,   36.3711777,           0.
   3811,   6.97529411,   36.3711777,           0.
   3812,   7.47352934,   36.3711777,           0.
   3813,   7.97176456,   36.3711777,           0.
   3814,   8.47000027,   36.3711777,           0.
   3815,   8.96823502,   36.3711777,           0.
   3816,   9.46647072,   36.3711777,           0.
   3817,   9.96470547,   36.3711777,           0.
   3818,   10.4629412,   36.3711777,           0.
   3819,   10.9611769,   36.3711777,           0.
   3820,   11.4594116,   36.3711777,           0.
   3821,   11.9576473,   36.3711777,           0.
   3822,   12.4558821,   36.3711777,           0.
   3823,   12.9541178,   36.3711777,           0.
   3824,   13.4523525,   36.3711777,           0.
   3825,   13.9505882,   36.3711777,           0.
   3826,   14.4488239,   36.3711777,           0.
   3827,   14.9470587,   36.3711777,           0.
   3828,   15.4452944,   36.3711777,           0.
   3829,   15.9435291,   36.3711777,           0.
   3830,   16.4417648,   36.3711777,           0.
   3831,   16.9400005,   36.3711777,           0.
   3832,   17.4382362,   36.3711777,           0.
   3833,     17.93647,   36.3711777,           0.
   3834,   18.4347057,   36.3711777,           0.
   3835,   18.9329414,   36.3711777,           0.
   3836,   19.4311771,   36.3711777,           0.
   3837,   19.9294109,   36.3711777,           0.
   3838,   20.4276466,   36.3711777,           0.
   3839,   20.9258823,   36.3711777,           0.
   3840,    21.424118,   36.3711777,           0.
   3841,   21.9223537,   36.3711777,           0.
   3842,   22.4205875,   36.3711777,           0.
   3843,   22.9188232,   36.3711777,           0.
   3844,   23.4170589,   36.3711777,           0.
   3845,   23.9152946,   36.3711777,           0.
   3846,   24.4135303,   36.3711777,           0.
   3847,   24.9117641,   36.3711777,           0.
   3848,   25.4099998,   36.3711777,           0.
   3849,           0.,   36.8694115,           0.
   3850,  0.498235285,   36.8694115,           0.
   3851,  0.996470571,   36.8694115,           0.
   3852,   1.49470592,   36.8694115,           0.
   3853,   1.99294114,   36.8694115,           0.
   3854,   2.49117637,   36.8694115,           0.
   3855,   2.98941183,   36.8694115,           0.
   3856,   3.48764706,   36.8694115,           0.
   3857,   3.98588228,   36.8694115,           0.
   3858,   4.48411751,   36.8694115,           0.
   3859,   4.98235273,   36.8694115,           0.
   3860,   5.48058844,   36.8694115,           0.
   3861,   5.97882366,   36.8694115,           0.
   3862,   6.47705889,   36.8694115,           0.
   3863,   6.97529411,   36.8694115,           0.
   3864,   7.47352934,   36.8694115,           0.
   3865,   7.97176456,   36.8694115,           0.
   3866,   8.47000027,   36.8694115,           0.
   3867,   8.96823502,   36.8694115,           0.
   3868,   9.46647072,   36.8694115,           0.
   3869,   9.96470547,   36.8694115,           0.
   3870,   10.4629412,   36.8694115,           0.
   3871,   10.9611769,   36.8694115,           0.
   3872,   11.4594116,   36.8694115,           0.
   3873,   11.9576473,   36.8694115,           0.
   3874,   12.4558821,   36.8694115,           0.
   3875,   12.9541178,   36.8694115,           0.
   3876,   13.4523525,   36.8694115,           0.
   3877,   13.9505882,   36.8694115,           0.
   3878,   14.4488239,   36.8694115,           0.
   3879,   14.9470587,   36.8694115,           0.
   3880,   15.4452944,   36.8694115,           0.
   3881,   15.9435291,   36.8694115,           0.
   3882,   16.4417648,   36.8694115,           0.
   3883,   16.9400005,   36.8694115,           0.
   3884,   17.4382362,   36.8694115,           0.
   3885,     17.93647,   36.8694115,           0.
   3886,   18.4347057,   36.8694115,           0.
   3887,   18.9329414,   36.8694115,           0.
   3888,   19.4311771,   36.8694115,           0.
   3889,   19.9294109,   36.8694115,           0.
   3890,   20.4276466,   36.8694115,           0.
   3891,   20.9258823,   36.8694115,           0.
   3892,    21.424118,   36.8694115,           0.
   3893,   21.9223537,   36.8694115,           0.
   3894,   22.4205875,   36.8694115,           0.
   3895,   22.9188232,   36.8694115,           0.
   3896,   23.4170589,   36.8694115,           0.
   3897,   23.9152946,   36.8694115,           0.
   3898,   24.4135303,   36.8694115,           0.
   3899,   24.9117641,   36.8694115,           0.
   3900,   25.4099998,   36.8694115,           0.
   3901,           0.,   37.3676453,           0.
   3902,  0.498235285,   37.3676453,           0.
   3903,  0.996470571,   37.3676453,           0.
   3904,   1.49470592,   37.3676453,           0.
   3905,   1.99294114,   37.3676453,           0.
   3906,   2.49117637,   37.3676453,           0.
   3907,   2.98941183,   37.3676453,           0.
   3908,   3.48764706,   37.3676453,           0.
   3909,   3.98588228,   37.3676453,           0.
   3910,   4.48411751,   37.3676453,           0.
   3911,   4.98235273,   37.3676453,           0.
   3912,   5.48058844,   37.3676453,           0.
   3913,   5.97882366,   37.3676453,           0.
   3914,   6.47705889,   37.3676453,           0.
   3915,   6.97529411,   37.3676453,           0.
   3916,   7.47352934,   37.3676453,           0.
   3917,   7.97176456,   37.3676453,           0.
   3918,   8.47000027,   37.3676453,           0.
   3919,   8.96823502,   37.3676453,           0.
   3920,   9.46647072,   37.3676453,           0.
   3921,   9.96470547,   37.3676453,           0.
   3922,   10.4629412,   37.3676453,           0.
   3923,   10.9611769,   37.3676453,           0.
   3924,   11.4594116,   37.3676453,           0.
   3925,   11.9576473,   37.3676453,           0.
   3926,   12.4558821,   37.3676453,           0.
   3927,   12.9541178,   37.3676453,           0.
   3928,   13.4523525,   37.3676453,           0.
   3929,   13.9505882,   37.3676453,           0.
   3930,   14.4488239,   37.3676453,           0.
   3931,   14.9470587,   37.3676453,           0.
   3932,   15.4452944,   37.3676453,           0.
   3933,   15.9435291,   37.3676453,           0.
   3934,   16.4417648,   37.3676453,           0.
   3935,   16.9400005,   37.3676453,           0.
   3936,   17.4382362,   37.3676453,           0.
   3937,     17.93647,   37.3676453,           0.
   3938,   18.4347057,   37.3676453,           0.
   3939,   18.9329414,   37.3676453,           0.
   3940,   19.4311771,   37.3676453,           0.
   3941,   19.9294109,   37.3676453,           0.
   3942,   20.4276466,   37.3676453,           0.
   3943,   20.9258823,   37.3676453,           0.
   3944,    21.424118,   37.3676453,           0.
   3945,   21.9223537,   37.3676453,           0.
   3946,   22.4205875,   37.3676453,           0.
   3947,   22.9188232,   37.3676453,           0.
   3948,   23.4170589,   37.3676453,           0.
   3949,   23.9152946,   37.3676453,           0.
   3950,   24.4135303,   37.3676453,           0.
   3951,   24.9117641,   37.3676453,           0.
   3952,   25.4099998,   37.3676453,           0.
   3953,           0.,   37.8658829,           0.
   3954,  0.498235285,   37.8658829,           0.
   3955,  0.996470571,   37.8658829,           0.
   3956,   1.49470592,   37.8658829,           0.
   3957,   1.99294114,   37.8658829,           0.
   3958,   2.49117637,   37.8658829,           0.
   3959,   2.98941183,   37.8658829,           0.
   3960,   3.48764706,   37.8658829,           0.
   3961,   3.98588228,   37.8658829,           0.
   3962,   4.48411751,   37.8658829,           0.
   3963,   4.98235273,   37.8658829,           0.
   3964,   5.48058844,   37.8658829,           0.
   3965,   5.97882366,   37.8658829,           0.
   3966,   6.47705889,   37.8658829,           0.
   3967,   6.97529411,   37.8658829,           0.
   3968,   7.47352934,   37.8658829,           0.
   3969,   7.97176456,   37.8658829,           0.
   3970,   8.47000027,   37.8658829,           0.
   3971,   8.96823502,   37.8658829,           0.
   3972,   9.46647072,   37.8658829,           0.
   3973,   9.96470547,   37.8658829,           0.
   3974,   10.4629412,   37.8658829,           0.
   3975,   10.9611769,   37.8658829,           0.
   3976,   11.4594116,   37.8658829,           0.
   3977,   11.9576473,   37.8658829,           0.
   3978,   12.4558821,   37.8658829,           0.
   3979,   12.9541178,   37.8658829,           0.
   3980,   13.4523525,   37.8658829,           0.
   3981,   13.9505882,   37.8658829,           0.
   3982,   14.4488239,   37.8658829,           0.
   3983,   14.9470587,   37.8658829,           0.
   3984,   15.4452944,   37.8658829,           0.
   3985,   15.9435291,   37.8658829,           0.
   3986,   16.4417648,   37.8658829,           0.
   3987,   16.9400005,   37.8658829,           0.
   3988,   17.4382362,   37.8658829,           0.
   3989,     17.93647,   37.8658829,           0.
   3990,   18.4347057,   37.8658829,           0.
   3991,   18.9329414,   37.8658829,           0.
   3992,   19.4311771,   37.8658829,           0.
   3993,   19.9294109,   37.8658829,           0.
   3994,   20.4276466,   37.8658829,           0.
   3995,   20.9258823,   37.8658829,           0.
   3996,    21.424118,   37.8658829,           0.
   3997,   21.9223537,   37.8658829,           0.
   3998,   22.4205875,   37.8658829,           0.
   3999,   22.9188232,   37.8658829,           0.
   4000,   23.4170589,   37.8658829,           0.
   4001,   23.9152946,   37.8658829,           0.
   4002,   24.4135303,   37.8658829,           0.
   4003,   24.9117641,   37.8658829,           0.
   4004,   25.4099998,   37.8658829,           0.
   4005,           0.,   38.3641167,           0.
   4006,  0.498235285,   38.3641167,           0.
   4007,  0.996470571,   38.3641167,           0.
   4008,   1.49470592,   38.3641167,           0.
   4009,   1.99294114,   38.3641167,           0.
   4010,   2.49117637,   38.3641167,           0.
   4011,   2.98941183,   38.3641167,           0.
   4012,   3.48764706,   38.3641167,           0.
   4013,   3.98588228,   38.3641167,           0.
   4014,   4.48411751,   38.3641167,           0.
   4015,   4.98235273,   38.3641167,           0.
   4016,   5.48058844,   38.3641167,           0.
   4017,   5.97882366,   38.3641167,           0.
   4018,   6.47705889,   38.3641167,           0.
   4019,   6.97529411,   38.3641167,           0.
   4020,   7.47352934,   38.3641167,           0.
   4021,   7.97176456,   38.3641167,           0.
   4022,   8.47000027,   38.3641167,           0.
   4023,   8.96823502,   38.3641167,           0.
   4024,   9.46647072,   38.3641167,           0.
   4025,   9.96470547,   38.3641167,           0.
   4026,   10.4629412,   38.3641167,           0.
   4027,   10.9611769,   38.3641167,           0.
   4028,   11.4594116,   38.3641167,           0.
   4029,   11.9576473,   38.3641167,           0.
   4030,   12.4558821,   38.3641167,           0.
   4031,   12.9541178,   38.3641167,           0.
   4032,   13.4523525,   38.3641167,           0.
   4033,   13.9505882,   38.3641167,           0.
   4034,   14.4488239,   38.3641167,           0.
   4035,   14.9470587,   38.3641167,           0.
   4036,   15.4452944,   38.3641167,           0.
   4037,   15.9435291,   38.3641167,           0.
   4038,   16.4417648,   38.3641167,           0.
   4039,   16.9400005,   38.3641167,           0.
   4040,   17.4382362,   38.3641167,           0.
   4041,     17.93647,   38.3641167,           0.
   4042,   18.4347057,   38.3641167,           0.
   4043,   18.9329414,   38.3641167,           0.
   4044,   19.4311771,   38.3641167,           0.
   4045,   19.9294109,   38.3641167,           0.
   4046,   20.4276466,   38.3641167,           0.
   4047,   20.9258823,   38.3641167,           0.
   4048,    21.424118,   38.3641167,           0.
   4049,   21.9223537,   38.3641167,           0.
   4050,   22.4205875,   38.3641167,           0.
   4051,   22.9188232,   38.3641167,           0.
   4052,   23.4170589,   38.3641167,           0.
   4053,   23.9152946,   38.3641167,           0.
   4054,   24.4135303,   38.3641167,           0.
   4055,   24.9117641,   38.3641167,           0.
   4056,   25.4099998,   38.3641167,           0.
   4057,           0.,   38.8623543,           0.
   4058,  0.498235285,   38.8623543,           0.
   4059,  0.996470571,   38.8623543,           0.
   4060,   1.49470592,   38.8623543,           0.
   4061,   1.99294114,   38.8623543,           0.
   4062,   2.49117637,   38.8623543,           0.
   4063,   2.98941183,   38.8623543,           0.
   4064,   3.48764706,   38.8623543,           0.
   4065,   3.98588228,   38.8623543,           0.
   4066,   4.48411751,   38.8623543,           0.
   4067,   4.98235273,   38.8623543,           0.
   4068,   5.48058844,   38.8623543,           0.
   4069,   5.97882366,   38.8623543,           0.
   4070,   6.47705889,   38.8623543,           0.
   4071,   6.97529411,   38.8623543,           0.
   4072,   7.47352934,   38.8623543,           0.
   4073,   7.97176456,   38.8623543,           0.
   4074,   8.47000027,   38.8623543,           0.
   4075,   8.96823502,   38.8623543,           0.
   4076,   9.46647072,   38.8623543,           0.
   4077,   9.96470547,   38.8623543,           0.
   4078,   10.4629412,   38.8623543,           0.
   4079,   10.9611769,   38.8623543,           0.
   4080,   11.4594116,   38.8623543,           0.
   4081,   11.9576473,   38.8623543,           0.
   4082,   12.4558821,   38.8623543,           0.
   4083,   12.9541178,   38.8623543,           0.
   4084,   13.4523525,   38.8623543,           0.
   4085,   13.9505882,   38.8623543,           0.
   4086,   14.4488239,   38.8623543,           0.
   4087,   14.9470587,   38.8623543,           0.
   4088,   15.4452944,   38.8623543,           0.
   4089,   15.9435291,   38.8623543,           0.
   4090,   16.4417648,   38.8623543,           0.
   4091,   16.9400005,   38.8623543,           0.
   4092,   17.4382362,   38.8623543,           0.
   4093,     17.93647,   38.8623543,           0.
   4094,   18.4347057,   38.8623543,           0.
   4095,   18.9329414,   38.8623543,           0.
   4096,   19.4311771,   38.8623543,           0.
   4097,   19.9294109,   38.8623543,           0.
   4098,   20.4276466,   38.8623543,           0.
   4099,   20.9258823,   38.8623543,           0.
   4100,    21.424118,   38.8623543,           0.
   4101,   21.9223537,   38.8623543,           0.
   4102,   22.4205875,   38.8623543,           0.
   4103,   22.9188232,   38.8623543,           0.
   4104,   23.4170589,   38.8623543,           0.
   4105,   23.9152946,   38.8623543,           0.
   4106,   24.4135303,   38.8623543,           0.
   4107,   24.9117641,   38.8623543,           0.
   4108,   25.4099998,   38.8623543,           0.
   4109,           0.,   39.3605881,           0.
   4110,  0.498235285,   39.3605881,           0.
   4111,  0.996470571,   39.3605881,           0.
   4112,   1.49470592,   39.3605881,           0.
   4113,   1.99294114,   39.3605881,           0.
   4114,   2.49117637,   39.3605881,           0.
   4115,   2.98941183,   39.3605881,           0.
   4116,   3.48764706,   39.3605881,           0.
   4117,   3.98588228,   39.3605881,           0.
   4118,   4.48411751,   39.3605881,           0.
   4119,   4.98235273,   39.3605881,           0.
   4120,   5.48058844,   39.3605881,           0.
   4121,   5.97882366,   39.3605881,           0.
   4122,   6.47705889,   39.3605881,           0.
   4123,   6.97529411,   39.3605881,           0.
   4124,   7.47352934,   39.3605881,           0.
   4125,   7.97176456,   39.3605881,           0.
   4126,   8.47000027,   39.3605881,           0.
   4127,   8.96823502,   39.3605881,           0.
   4128,   9.46647072,   39.3605881,           0.
   4129,   9.96470547,   39.3605881,           0.
   4130,   10.4629412,   39.3605881,           0.
   4131,   10.9611769,   39.3605881,           0.
   4132,   11.4594116,   39.3605881,           0.
   4133,   11.9576473,   39.3605881,           0.
   4134,   12.4558821,   39.3605881,           0.
   4135,   12.9541178,   39.3605881,           0.
   4136,   13.4523525,   39.3605881,           0.
   4137,   13.9505882,   39.3605881,           0.
   4138,   14.4488239,   39.3605881,           0.
   4139,   14.9470587,   39.3605881,           0.
   4140,   15.4452944,   39.3605881,           0.
   4141,   15.9435291,   39.3605881,           0.
   4142,   16.4417648,   39.3605881,           0.
   4143,   16.9400005,   39.3605881,           0.
   4144,   17.4382362,   39.3605881,           0.
   4145,     17.93647,   39.3605881,           0.
   4146,   18.4347057,   39.3605881,           0.
   4147,   18.9329414,   39.3605881,           0.
   4148,   19.4311771,   39.3605881,           0.
   4149,   19.9294109,   39.3605881,           0.
   4150,   20.4276466,   39.3605881,           0.
   4151,   20.9258823,   39.3605881,           0.
   4152,    21.424118,   39.3605881,           0.
   4153,   21.9223537,   39.3605881,           0.
   4154,   22.4205875,   39.3605881,           0.
   4155,   22.9188232,   39.3605881,           0.
   4156,   23.4170589,   39.3605881,           0.
   4157,   23.9152946,   39.3605881,           0.
   4158,   24.4135303,   39.3605881,           0.
   4159,   24.9117641,   39.3605881,           0.
   4160,   25.4099998,   39.3605881,           0.
   4161,           0.,   39.8588219,           0.
   4162,  0.498235285,   39.8588219,           0.
   4163,  0.996470571,   39.8588219,           0.
   4164,   1.49470592,   39.8588219,           0.
   4165,   1.99294114,   39.8588219,           0.
   4166,   2.49117637,   39.8588219,           0.
   4167,   2.98941183,   39.8588219,           0.
   4168,   3.48764706,   39.8588219,           0.
   4169,   3.98588228,   39.8588219,           0.
   4170,   4.48411751,   39.8588219,           0.
   4171,   4.98235273,   39.8588219,           0.
   4172,   5.48058844,   39.8588219,           0.
   4173,   5.97882366,   39.8588219,           0.
   4174,   6.47705889,   39.8588219,           0.
   4175,   6.97529411,   39.8588219,           0.
   4176,   7.47352934,   39.8588219,           0.
   4177,   7.97176456,   39.8588219,           0.
   4178,   8.47000027,   39.8588219,           0.
   4179,   8.96823502,   39.8588219,           0.
   4180,   9.46647072,   39.8588219,           0.
   4181,   9.96470547,   39.8588219,           0.
   4182,   10.4629412,   39.8588219,           0.
   4183,   10.9611769,   39.8588219,           0.
   4184,   11.4594116,   39.8588219,           0.
   4185,   11.9576473,   39.8588219,           0.
   4186,   12.4558821,   39.8588219,           0.
   4187,   12.9541178,   39.8588219,           0.
   4188,   13.4523525,   39.8588219,           0.
   4189,   13.9505882,   39.8588219,           0.
   4190,   14.4488239,   39.8588219,           0.
   4191,   14.9470587,   39.8588219,           0.
   4192,   15.4452944,   39.8588219,           0.
   4193,   15.9435291,   39.8588219,           0.
   4194,   16.4417648,   39.8588219,           0.
   4195,   16.9400005,   39.8588219,           0.
   4196,   17.4382362,   39.8588219,           0.
   4197,     17.93647,   39.8588219,           0.
   4198,   18.4347057,   39.8588219,           0.
   4199,   18.9329414,   39.8588219,           0.
   4200,   19.4311771,   39.8588219,           0.
   4201,   19.9294109,   39.8588219,           0.
   4202,   20.4276466,   39.8588219,           0.
   4203,   20.9258823,   39.8588219,           0.
   4204,    21.424118,   39.8588219,           0.
   4205,   21.9223537,   39.8588219,           0.
   4206,   22.4205875,   39.8588219,           0.
   4207,   22.9188232,   39.8588219,           0.
   4208,   23.4170589,   39.8588219,           0.
   4209,   23.9152946,   39.8588219,           0.
   4210,   24.4135303,   39.8588219,           0.
   4211,   24.9117641,   39.8588219,           0.
   4212,   25.4099998,   39.8588219,           0.
   4213,           0.,   40.3570595,           0.
   4214,  0.498235285,   40.3570595,           0.
   4215,  0.996470571,   40.3570595,           0.
   4216,   1.49470592,   40.3570595,           0.
   4217,   1.99294114,   40.3570595,           0.
   4218,   2.49117637,   40.3570595,           0.
   4219,   2.98941183,   40.3570595,           0.
   4220,   3.48764706,   40.3570595,           0.
   4221,   3.98588228,   40.3570595,           0.
   4222,   4.48411751,   40.3570595,           0.
   4223,   4.98235273,   40.3570595,           0.
   4224,   5.48058844,   40.3570595,           0.
   4225,   5.97882366,   40.3570595,           0.
   4226,   6.47705889,   40.3570595,           0.
   4227,   6.97529411,   40.3570595,           0.
   4228,   7.47352934,   40.3570595,           0.
   4229,   7.97176456,   40.3570595,           0.
   4230,   8.47000027,   40.3570595,           0.
   4231,   8.96823502,   40.3570595,           0.
   4232,   9.46647072,   40.3570595,           0.
   4233,   9.96470547,   40.3570595,           0.
   4234,   10.4629412,   40.3570595,           0.
   4235,   10.9611769,   40.3570595,           0.
   4236,   11.4594116,   40.3570595,           0.
   4237,   11.9576473,   40.3570595,           0.
   4238,   12.4558821,   40.3570595,           0.
   4239,   12.9541178,   40.3570595,           0.
   4240,   13.4523525,   40.3570595,           0.
   4241,   13.9505882,   40.3570595,           0.
   4242,   14.4488239,   40.3570595,           0.
   4243,   14.9470587,   40.3570595,           0.
   4244,   15.4452944,   40.3570595,           0.
   4245,   15.9435291,   40.3570595,           0.
   4246,   16.4417648,   40.3570595,           0.
   4247,   16.9400005,   40.3570595,           0.
   4248,   17.4382362,   40.3570595,           0.
   4249,     17.93647,   40.3570595,           0.
   4250,   18.4347057,   40.3570595,           0.
   4251,   18.9329414,   40.3570595,           0.
   4252,   19.4311771,   40.3570595,           0.
   4253,   19.9294109,   40.3570595,           0.
   4254,   20.4276466,   40.3570595,           0.
   4255,   20.9258823,   40.3570595,           0.
   4256,    21.424118,   40.3570595,           0.
   4257,   21.9223537,   40.3570595,           0.
   4258,   22.4205875,   40.3570595,           0.
   4259,   22.9188232,   40.3570595,           0.
   4260,   23.4170589,   40.3570595,           0.
   4261,   23.9152946,   40.3570595,           0.
   4262,   24.4135303,   40.3570595,           0.
   4263,   24.9117641,   40.3570595,           0.
   4264,   25.4099998,   40.3570595,           0.
   4265,           0.,   40.8552933,           0.
   4266,  0.498235285,   40.8552933,           0.
   4267,  0.996470571,   40.8552933,           0.
   4268,   1.49470592,   40.8552933,           0.
   4269,   1.99294114,   40.8552933,           0.
   4270,   2.49117637,   40.8552933,           0.
   4271,   2.98941183,   40.8552933,           0.
   4272,   3.48764706,   40.8552933,           0.
   4273,   3.98588228,   40.8552933,           0.
   4274,   4.48411751,   40.8552933,           0.
   4275,   4.98235273,   40.8552933,           0.
   4276,   5.48058844,   40.8552933,           0.
   4277,   5.97882366,   40.8552933,           0.
   4278,   6.47705889,   40.8552933,           0.
   4279,   6.97529411,   40.8552933,           0.
   4280,   7.47352934,   40.8552933,           0.
   4281,   7.97176456,   40.8552933,           0.
   4282,   8.47000027,   40.8552933,           0.
   4283,   8.96823502,   40.8552933,           0.
   4284,   9.46647072,   40.8552933,           0.
   4285,   9.96470547,   40.8552933,           0.
   4286,   10.4629412,   40.8552933,           0.
   4287,   10.9611769,   40.8552933,           0.
   4288,   11.4594116,   40.8552933,           0.
   4289,   11.9576473,   40.8552933,           0.
   4290,   12.4558821,   40.8552933,           0.
   4291,   12.9541178,   40.8552933,           0.
   4292,   13.4523525,   40.8552933,           0.
   4293,   13.9505882,   40.8552933,           0.
   4294,   14.4488239,   40.8552933,           0.
   4295,   14.9470587,   40.8552933,           0.
   4296,   15.4452944,   40.8552933,           0.
   4297,   15.9435291,   40.8552933,           0.
   4298,   16.4417648,   40.8552933,           0.
   4299,   16.9400005,   40.8552933,           0.
   4300,   17.4382362,   40.8552933,           0.
   4301,     17.93647,   40.8552933,           0.
   4302,   18.4347057,   40.8552933,           0.
   4303,   18.9329414,   40.8552933,           0.
   4304,   19.4311771,   40.8552933,           0.
   4305,   19.9294109,   40.8552933,           0.
   4306,   20.4276466,   40.8552933,           0.
   4307,   20.9258823,   40.8552933,           0.
   4308,    21.424118,   40.8552933,           0.
   4309,   21.9223537,   40.8552933,           0.
   4310,   22.4205875,   40.8552933,           0.
   4311,   22.9188232,   40.8552933,           0.
   4312,   23.4170589,   40.8552933,           0.
   4313,   23.9152946,   40.8552933,           0.
   4314,   24.4135303,   40.8552933,           0.
   4315,   24.9117641,   40.8552933,           0.
   4316,   25.4099998,   40.8552933,           0.
   4317,           0.,   41.3535309,           0.
   4318,  0.498235285,   41.3535309,           0.
   4319,  0.996470571,   41.3535309,           0.
   4320,   1.49470592,   41.3535309,           0.
   4321,   1.99294114,   41.3535309,           0.
   4322,   2.49117637,   41.3535309,           0.
   4323,   2.98941183,   41.3535309,           0.
   4324,   3.48764706,   41.3535309,           0.
   4325,   3.98588228,   41.3535309,           0.
   4326,   4.48411751,   41.3535309,           0.
   4327,   4.98235273,   41.3535309,           0.
   4328,   5.48058844,   41.3535309,           0.
   4329,   5.97882366,   41.3535309,           0.
   4330,   6.47705889,   41.3535309,           0.
   4331,   6.97529411,   41.3535309,           0.
   4332,   7.47352934,   41.3535309,           0.
   4333,   7.97176456,   41.3535309,           0.
   4334,   8.47000027,   41.3535309,           0.
   4335,   8.96823502,   41.3535309,           0.
   4336,   9.46647072,   41.3535309,           0.
   4337,   9.96470547,   41.3535309,           0.
   4338,   10.4629412,   41.3535309,           0.
   4339,   10.9611769,   41.3535309,           0.
   4340,   11.4594116,   41.3535309,           0.
   4341,   11.9576473,   41.3535309,           0.
   4342,   12.4558821,   41.3535309,           0.
   4343,   12.9541178,   41.3535309,           0.
   4344,   13.4523525,   41.3535309,           0.
   4345,   13.9505882,   41.3535309,           0.
   4346,   14.4488239,   41.3535309,           0.
   4347,   14.9470587,   41.3535309,           0.
   4348,   15.4452944,   41.3535309,           0.
   4349,   15.9435291,   41.3535309,           0.
   4350,   16.4417648,   41.3535309,           0.
   4351,   16.9400005,   41.3535309,           0.
   4352,   17.4382362,   41.3535309,           0.
   4353,     17.93647,   41.3535309,           0.
   4354,   18.4347057,   41.3535309,           0.
   4355,   18.9329414,   41.3535309,           0.
   4356,   19.4311771,   41.3535309,           0.
   4357,   19.9294109,   41.3535309,           0.
   4358,   20.4276466,   41.3535309,           0.
   4359,   20.9258823,   41.3535309,           0.
   4360,    21.424118,   41.3535309,           0.
   4361,   21.9223537,   41.3535309,           0.
   4362,   22.4205875,   41.3535309,           0.
   4363,   22.9188232,   41.3535309,           0.
   4364,   23.4170589,   41.3535309,           0.
   4365,   23.9152946,   41.3535309,           0.
   4366,   24.4135303,   41.3535309,           0.
   4367,   24.9117641,   41.3535309,           0.
   4368,   25.4099998,   41.3535309,           0.
   4369,           0.,   41.8517647,           0.
   4370,  0.498235285,   41.8517647,           0.
   4371,  0.996470571,   41.8517647,           0.
   4372,   1.49470592,   41.8517647,           0.
   4373,   1.99294114,   41.8517647,           0.
   4374,   2.49117637,   41.8517647,           0.
   4375,   2.98941183,   41.8517647,           0.
   4376,   3.48764706,   41.8517647,           0.
   4377,   3.98588228,   41.8517647,           0.
   4378,   4.48411751,   41.8517647,           0.
   4379,   4.98235273,   41.8517647,           0.
   4380,   5.48058844,   41.8517647,           0.
   4381,   5.97882366,   41.8517647,           0.
   4382,   6.47705889,   41.8517647,           0.
   4383,   6.97529411,   41.8517647,           0.
   4384,   7.47352934,   41.8517647,           0.
   4385,   7.97176456,   41.8517647,           0.
   4386,   8.47000027,   41.8517647,           0.
   4387,   8.96823502,   41.8517647,           0.
   4388,   9.46647072,   41.8517647,           0.
   4389,   9.96470547,   41.8517647,           0.
   4390,   10.4629412,   41.8517647,           0.
   4391,   10.9611769,   41.8517647,           0.
   4392,   11.4594116,   41.8517647,           0.
   4393,   11.9576473,   41.8517647,           0.
   4394,   12.4558821,   41.8517647,           0.
   4395,   12.9541178,   41.8517647,           0.
   4396,   13.4523525,   41.8517647,           0.
   4397,   13.9505882,   41.8517647,           0.
   4398,   14.4488239,   41.8517647,           0.
   4399,   14.9470587,   41.8517647,           0.
   4400,   15.4452944,   41.8517647,           0.
   4401,   15.9435291,   41.8517647,           0.
   4402,   16.4417648,   41.8517647,           0.
   4403,   16.9400005,   41.8517647,           0.
   4404,   17.4382362,   41.8517647,           0.
   4405,     17.93647,   41.8517647,           0.
   4406,   18.4347057,   41.8517647,           0.
   4407,   18.9329414,   41.8517647,           0.
   4408,   19.4311771,   41.8517647,           0.
   4409,   19.9294109,   41.8517647,           0.
   4410,   20.4276466,   41.8517647,           0.
   4411,   20.9258823,   41.8517647,           0.
   4412,    21.424118,   41.8517647,           0.
   4413,   21.9223537,   41.8517647,           0.
   4414,   22.4205875,   41.8517647,           0.
   4415,   22.9188232,   41.8517647,           0.
   4416,   23.4170589,   41.8517647,           0.
   4417,   23.9152946,   41.8517647,           0.
   4418,   24.4135303,   41.8517647,           0.
   4419,   24.9117641,   41.8517647,           0.
   4420,   25.4099998,   41.8517647,           0.
   4421,           0.,   42.3499985,           0.
   4422,  0.498235285,   42.3499985,           0.
   4423,  0.996470571,   42.3499985,           0.
   4424,   1.49470592,   42.3499985,           0.
   4425,   1.99294114,   42.3499985,           0.
   4426,   2.49117637,   42.3499985,           0.
   4427,   2.98941183,   42.3499985,           0.
   4428,   3.48764706,   42.3499985,           0.
   4429,   3.98588228,   42.3499985,           0.
   4430,   4.48411751,   42.3499985,           0.
   4431,   4.98235273,   42.3499985,           0.
   4432,   5.48058844,   42.3499985,           0.
   4433,   5.97882366,   42.3499985,           0.
   4434,   6.47705889,   42.3499985,           0.
   4435,   6.97529411,   42.3499985,           0.
   4436,   7.47352934,   42.3499985,           0.
   4437,   7.97176456,   42.3499985,           0.
   4438,   8.47000027,   42.3499985,           0.
   4439,   8.96823502,   42.3499985,           0.
   4440,   9.46647072,   42.3499985,           0.
   4441,   9.96470547,   42.3499985,           0.
   4442,   10.4629412,   42.3499985,           0.
   4443,   10.9611769,   42.3499985,           0.
   4444,   11.4594116,   42.3499985,           0.
   4445,   11.9576473,   42.3499985,           0.
   4446,   12.4558821,   42.3499985,           0.
   4447,   12.9541178,   42.3499985,           0.
   4448,   13.4523525,   42.3499985,           0.
   4449,   13.9505882,   42.3499985,           0.
   4450,   14.4488239,   42.3499985,           0.
   4451,   14.9470587,   42.3499985,           0.
   4452,   15.4452944,   42.3499985,           0.
   4453,   15.9435291,   42.3499985,           0.
   4454,   16.4417648,   42.3499985,           0.
   4455,   16.9400005,   42.3499985,           0.
   4456,   17.4382362,   42.3499985,           0.
   4457,     17.93647,   42.3499985,           0.
   4458,   18.4347057,   42.3499985,           0.
   4459,   18.9329414,   42.3499985,           0.
   4460,   19.4311771,   42.3499985,           0.
   4461,   19.9294109,   42.3499985,           0.
   4462,   20.4276466,   42.3499985,           0.
   4463,   20.9258823,   42.3499985,           0.
   4464,    21.424118,   42.3499985,           0.
   4465,   21.9223537,   42.3499985,           0.
   4466,   22.4205875,   42.3499985,           0.
   4467,   22.9188232,   42.3499985,           0.
   4468,   23.4170589,   42.3499985,           0.
   4469,   23.9152946,   42.3499985,           0.
   4470,   24.4135303,   42.3499985,           0.
   4471,   24.9117641,   42.3499985,           0.
   4472,   25.4099998,   42.3499985,           0.
   4473,           0.,   42.8482361,           0.
   4474,  0.498235285,   42.8482361,           0.
   4475,  0.996470571,   42.8482361,           0.
   4476,   1.49470592,   42.8482361,           0.
   4477,   1.99294114,   42.8482361,           0.
   4478,   2.49117637,   42.8482361,           0.
   4479,   2.98941183,   42.8482361,           0.
   4480,   3.48764706,   42.8482361,           0.
   4481,   3.98588228,   42.8482361,           0.
   4482,   4.48411751,   42.8482361,           0.
   4483,   4.98235273,   42.8482361,           0.
   4484,   5.48058844,   42.8482361,           0.
   4485,   5.97882366,   42.8482361,           0.
   4486,   6.47705889,   42.8482361,           0.
   4487,   6.97529411,   42.8482361,           0.
   4488,   7.47352934,   42.8482361,           0.
   4489,   7.97176456,   42.8482361,           0.
   4490,   8.47000027,   42.8482361,           0.
   4491,   8.96823502,   42.8482361,           0.
   4492,   9.46647072,   42.8482361,           0.
   4493,   9.96470547,   42.8482361,           0.
   4494,   10.4629412,   42.8482361,           0.
   4495,   10.9611769,   42.8482361,           0.
   4496,   11.4594116,   42.8482361,           0.
   4497,   11.9576473,   42.8482361,           0.
   4498,   12.4558821,   42.8482361,           0.
   4499,   12.9541178,   42.8482361,           0.
   4500,   13.4523525,   42.8482361,           0.
   4501,   13.9505882,   42.8482361,           0.
   4502,   14.4488239,   42.8482361,           0.
   4503,   14.9470587,   42.8482361,           0.
   4504,   15.4452944,   42.8482361,           0.
   4505,   15.9435291,   42.8482361,           0.
   4506,   16.4417648,   42.8482361,           0.
   4507,   16.9400005,   42.8482361,           0.
   4508,   17.4382362,   42.8482361,           0.
   4509,     17.93647,   42.8482361,           0.
   4510,   18.4347057,   42.8482361,           0.
   4511,   18.9329414,   42.8482361,           0.
   4512,   19.4311771,   42.8482361,           0.
   4513,   19.9294109,   42.8482361,           0.
   4514,   20.4276466,   42.8482361,           0.
   4515,   20.9258823,   42.8482361,           0.
   4516,    21.424118,   42.8482361,           0.
   4517,   21.9223537,   42.8482361,           0.
   4518,   22.4205875,   42.8482361,           0.
   4519,   22.9188232,   42.8482361,           0.
   4520,   23.4170589,   42.8482361,           0.
   4521,   23.9152946,   42.8482361,           0.
   4522,   24.4135303,   42.8482361,           0.
   4523,   24.9117641,   42.8482361,           0.
   4524,   25.4099998,   42.8482361,           0.
   4525,           0.,   43.3464699,           0.
   4526,  0.498235285,   43.3464699,           0.
   4527,  0.996470571,   43.3464699,           0.
   4528,   1.49470592,   43.3464699,           0.
   4529,   1.99294114,   43.3464699,           0.
   4530,   2.49117637,   43.3464699,           0.
   4531,   2.98941183,   43.3464699,           0.
   4532,   3.48764706,   43.3464699,           0.
   4533,   3.98588228,   43.3464699,           0.
   4534,   4.48411751,   43.3464699,           0.
   4535,   4.98235273,   43.3464699,           0.
   4536,   5.48058844,   43.3464699,           0.
   4537,   5.97882366,   43.3464699,           0.
   4538,   6.47705889,   43.3464699,           0.
   4539,   6.97529411,   43.3464699,           0.
   4540,   7.47352934,   43.3464699,           0.
   4541,   7.97176456,   43.3464699,           0.
   4542,   8.47000027,   43.3464699,           0.
   4543,   8.96823502,   43.3464699,           0.
   4544,   9.46647072,   43.3464699,           0.
   4545,   9.96470547,   43.3464699,           0.
   4546,   10.4629412,   43.3464699,           0.
   4547,   10.9611769,   43.3464699,           0.
   4548,   11.4594116,   43.3464699,           0.
   4549,   11.9576473,   43.3464699,           0.
   4550,   12.4558821,   43.3464699,           0.
   4551,   12.9541178,   43.3464699,           0.
   4552,   13.4523525,   43.3464699,           0.
   4553,   13.9505882,   43.3464699,           0.
   4554,   14.4488239,   43.3464699,           0.
   4555,   14.9470587,   43.3464699,           0.
   4556,   15.4452944,   43.3464699,           0.
   4557,   15.9435291,   43.3464699,           0.
   4558,   16.4417648,   43.3464699,           0.
   4559,   16.9400005,   43.3464699,           0.
   4560,   17.4382362,   43.3464699,           0.
   4561,     17.93647,   43.3464699,           0.
   4562,   18.4347057,   43.3464699,           0.
   4563,   18.9329414,   43.3464699,           0.
   4564,   19.4311771,   43.3464699,           0.
   4565,   19.9294109,   43.3464699,           0.
   4566,   20.4276466,   43.3464699,           0.
   4567,   20.9258823,   43.3464699,           0.
   4568,    21.424118,   43.3464699,           0.
   4569,   21.9223537,   43.3464699,           0.
   4570,   22.4205875,   43.3464699,           0.
   4571,   22.9188232,   43.3464699,           0.
   4572,   23.4170589,   43.3464699,           0.
   4573,   23.9152946,   43.3464699,           0.
   4574,   24.4135303,   43.3464699,           0.
   4575,   24.9117641,   43.3464699,           0.
   4576,   25.4099998,   43.3464699,           0.
   4577,           0.,   43.8447075,           0.
   4578,  0.498235285,   43.8447075,           0.
   4579,  0.996470571,   43.8447075,           0.
   4580,   1.49470592,   43.8447075,           0.
   4581,   1.99294114,   43.8447075,           0.
   4582,   2.49117637,   43.8447075,           0.
   4583,   2.98941183,   43.8447075,           0.
   4584,   3.48764706,   43.8447075,           0.
   4585,   3.98588228,   43.8447075,           0.
   4586,   4.48411751,   43.8447075,           0.
   4587,   4.98235273,   43.8447075,           0.
   4588,   5.48058844,   43.8447075,           0.
   4589,   5.97882366,   43.8447075,           0.
   4590,   6.47705889,   43.8447075,           0.
   4591,   6.97529411,   43.8447075,           0.
   4592,   7.47352934,   43.8447075,           0.
   4593,   7.97176456,   43.8447075,           0.
   4594,   8.47000027,   43.8447075,           0.
   4595,   8.96823502,   43.8447075,           0.
   4596,   9.46647072,   43.8447075,           0.
   4597,   9.96470547,   43.8447075,           0.
   4598,   10.4629412,   43.8447075,           0.
   4599,   10.9611769,   43.8447075,           0.
   4600,   11.4594116,   43.8447075,           0.
   4601,   11.9576473,   43.8447075,           0.
   4602,   12.4558821,   43.8447075,           0.
   4603,   12.9541178,   43.8447075,           0.
   4604,   13.4523525,   43.8447075,           0.
   4605,   13.9505882,   43.8447075,           0.
   4606,   14.4488239,   43.8447075,           0.
   4607,   14.9470587,   43.8447075,           0.
   4608,   15.4452944,   43.8447075,           0.
   4609,   15.9435291,   43.8447075,           0.
   4610,   16.4417648,   43.8447075,           0.
   4611,   16.9400005,   43.8447075,           0.
   4612,   17.4382362,   43.8447075,           0.
   4613,     17.93647,   43.8447075,           0.
   4614,   18.4347057,   43.8447075,           0.
   4615,   18.9329414,   43.8447075,           0.
   4616,   19.4311771,   43.8447075,           0.
   4617,   19.9294109,   43.8447075,           0.
   4618,   20.4276466,   43.8447075,           0.
   4619,   20.9258823,   43.8447075,           0.
   4620,    21.424118,   43.8447075,           0.
   4621,   21.9223537,   43.8447075,           0.
   4622,   22.4205875,   43.8447075,           0.
   4623,   22.9188232,   43.8447075,           0.
   4624,   23.4170589,   43.8447075,           0.
   4625,   23.9152946,   43.8447075,           0.
   4626,   24.4135303,   43.8447075,           0.
   4627,   24.9117641,   43.8447075,           0.
   4628,   25.4099998,   43.8447075,           0.
   4629,           0.,   44.3429413,           0.
   4630,  0.498235285,   44.3429413,           0.
   4631,  0.996470571,   44.3429413,           0.
   4632,   1.49470592,   44.3429413,           0.
   4633,   1.99294114,   44.3429413,           0.
   4634,   2.49117637,   44.3429413,           0.
   4635,   2.98941183,   44.3429413,           0.
   4636,   3.48764706,   44.3429413,           0.
   4637,   3.98588228,   44.3429413,           0.
   4638,   4.48411751,   44.3429413,           0.
   4639,   4.98235273,   44.3429413,           0.
   4640,   5.48058844,   44.3429413,           0.
   4641,   5.97882366,   44.3429413,           0.
   4642,   6.47705889,   44.3429413,           0.
   4643,   6.97529411,   44.3429413,           0.
   4644,   7.47352934,   44.3429413,           0.
   4645,   7.97176456,   44.3429413,           0.
   4646,   8.47000027,   44.3429413,           0.
   4647,   8.96823502,   44.3429413,           0.
   4648,   9.46647072,   44.3429413,           0.
   4649,   9.96470547,   44.3429413,           0.
   4650,   10.4629412,   44.3429413,           0.
   4651,   10.9611769,   44.3429413,           0.
   4652,   11.4594116,   44.3429413,           0.
   4653,   11.9576473,   44.3429413,           0.
   4654,   12.4558821,   44.3429413,           0.
   4655,   12.9541178,   44.3429413,           0.
   4656,   13.4523525,   44.3429413,           0.
   4657,   13.9505882,   44.3429413,           0.
   4658,   14.4488239,   44.3429413,           0.
   4659,   14.9470587,   44.3429413,           0.
   4660,   15.4452944,   44.3429413,           0.
   4661,   15.9435291,   44.3429413,           0.
   4662,   16.4417648,   44.3429413,           0.
   4663,   16.9400005,   44.3429413,           0.
   4664,   17.4382362,   44.3429413,           0.
   4665,     17.93647,   44.3429413,           0.
   4666,   18.4347057,   44.3429413,           0.
   4667,   18.9329414,   44.3429413,           0.
   4668,   19.4311771,   44.3429413,           0.
   4669,   19.9294109,   44.3429413,           0.
   4670,   20.4276466,   44.3429413,           0.
   4671,   20.9258823,   44.3429413,           0.
   4672,    21.424118,   44.3429413,           0.
   4673,   21.9223537,   44.3429413,           0.
   4674,   22.4205875,   44.3429413,           0.
   4675,   22.9188232,   44.3429413,           0.
   4676,   23.4170589,   44.3429413,           0.
   4677,   23.9152946,   44.3429413,           0.
   4678,   24.4135303,   44.3429413,           0.
   4679,   24.9117641,   44.3429413,           0.
   4680,   25.4099998,   44.3429413,           0.
   4681,           0.,   44.8411751,           0.
   4682,  0.498235285,   44.8411751,           0.
   4683,  0.996470571,   44.8411751,           0.
   4684,   1.49470592,   44.8411751,           0.
   4685,   1.99294114,   44.8411751,           0.
   4686,   2.49117637,   44.8411751,           0.
   4687,   2.98941183,   44.8411751,           0.
   4688,   3.48764706,   44.8411751,           0.
   4689,   3.98588228,   44.8411751,           0.
   4690,   4.48411751,   44.8411751,           0.
   4691,   4.98235273,   44.8411751,           0.
   4692,   5.48058844,   44.8411751,           0.
   4693,   5.97882366,   44.8411751,           0.
   4694,   6.47705889,   44.8411751,           0.
   4695,   6.97529411,   44.8411751,           0.
   4696,   7.47352934,   44.8411751,           0.
   4697,   7.97176456,   44.8411751,           0.
   4698,   8.47000027,   44.8411751,           0.
   4699,   8.96823502,   44.8411751,           0.
   4700,   9.46647072,   44.8411751,           0.
   4701,   9.96470547,   44.8411751,           0.
   4702,   10.4629412,   44.8411751,           0.
   4703,   10.9611769,   44.8411751,           0.
   4704,   11.4594116,   44.8411751,           0.
   4705,   11.9576473,   44.8411751,           0.
   4706,   12.4558821,   44.8411751,           0.
   4707,   12.9541178,   44.8411751,           0.
   4708,   13.4523525,   44.8411751,           0.
   4709,   13.9505882,   44.8411751,           0.
   4710,   14.4488239,   44.8411751,           0.
   4711,   14.9470587,   44.8411751,           0.
   4712,   15.4452944,   44.8411751,           0.
   4713,   15.9435291,   44.8411751,           0.
   4714,   16.4417648,   44.8411751,           0.
   4715,   16.9400005,   44.8411751,           0.
   4716,   17.4382362,   44.8411751,           0.
   4717,     17.93647,   44.8411751,           0.
   4718,   18.4347057,   44.8411751,           0.
   4719,   18.9329414,   44.8411751,           0.
   4720,   19.4311771,   44.8411751,           0.
   4721,   19.9294109,   44.8411751,           0.
   4722,   20.4276466,   44.8411751,           0.
   4723,   20.9258823,   44.8411751,           0.
   4724,    21.424118,   44.8411751,           0.
   4725,   21.9223537,   44.8411751,           0.
   4726,   22.4205875,   44.8411751,           0.
   4727,   22.9188232,   44.8411751,           0.
   4728,   23.4170589,   44.8411751,           0.
   4729,   23.9152946,   44.8411751,           0.
   4730,   24.4135303,   44.8411751,           0.
   4731,   24.9117641,   44.8411751,           0.
   4732,   25.4099998,   44.8411751,           0.
   4733,           0.,   45.3394127,           0.
   4734,  0.498235285,   45.3394127,           0.
   4735,  0.996470571,   45.3394127,           0.
   4736,   1.49470592,   45.3394127,           0.
   4737,   1.99294114,   45.3394127,           0.
   4738,   2.49117637,   45.3394127,           0.
   4739,   2.98941183,   45.3394127,           0.
   4740,   3.48764706,   45.3394127,           0.
   4741,   3.98588228,   45.3394127,           0.
   4742,   4.48411751,   45.3394127,           0.
   4743,   4.98235273,   45.3394127,           0.
   4744,   5.48058844,   45.3394127,           0.
   4745,   5.97882366,   45.3394127,           0.
   4746,   6.47705889,   45.3394127,           0.
   4747,   6.97529411,   45.3394127,           0.
   4748,   7.47352934,   45.3394127,           0.
   4749,   7.97176456,   45.3394127,           0.
   4750,   8.47000027,   45.3394127,           0.
   4751,   8.96823502,   45.3394127,           0.
   4752,   9.46647072,   45.3394127,           0.
   4753,   9.96470547,   45.3394127,           0.
   4754,   10.4629412,   45.3394127,           0.
   4755,   10.9611769,   45.3394127,           0.
   4756,   11.4594116,   45.3394127,           0.
   4757,   11.9576473,   45.3394127,           0.
   4758,   12.4558821,   45.3394127,           0.
   4759,   12.9541178,   45.3394127,           0.
   4760,   13.4523525,   45.3394127,           0.
   4761,   13.9505882,   45.3394127,           0.
   4762,   14.4488239,   45.3394127,           0.
   4763,   14.9470587,   45.3394127,           0.
   4764,   15.4452944,   45.3394127,           0.
   4765,   15.9435291,   45.3394127,           0.
   4766,   16.4417648,   45.3394127,           0.
   4767,   16.9400005,   45.3394127,           0.
   4768,   17.4382362,   45.3394127,           0.
   4769,     17.93647,   45.3394127,           0.
   4770,   18.4347057,   45.3394127,           0.
   4771,   18.9329414,   45.3394127,           0.
   4772,   19.4311771,   45.3394127,           0.
   4773,   19.9294109,   45.3394127,           0.
   4774,   20.4276466,   45.3394127,           0.
   4775,   20.9258823,   45.3394127,           0.
   4776,    21.424118,   45.3394127,           0.
   4777,   21.9223537,   45.3394127,           0.
   4778,   22.4205875,   45.3394127,           0.
   4779,   22.9188232,   45.3394127,           0.
   4780,   23.4170589,   45.3394127,           0.
   4781,   23.9152946,   45.3394127,           0.
   4782,   24.4135303,   45.3394127,           0.
   4783,   24.9117641,   45.3394127,           0.
   4784,   25.4099998,   45.3394127,           0.
   4785,           0.,   45.8376465,           0.
   4786,  0.498235285,   45.8376465,           0.
   4787,  0.996470571,   45.8376465,           0.
   4788,   1.49470592,   45.8376465,           0.
   4789,   1.99294114,   45.8376465,           0.
   4790,   2.49117637,   45.8376465,           0.
   4791,   2.98941183,   45.8376465,           0.
   4792,   3.48764706,   45.8376465,           0.
   4793,   3.98588228,   45.8376465,           0.
   4794,   4.48411751,   45.8376465,           0.
   4795,   4.98235273,   45.8376465,           0.
   4796,   5.48058844,   45.8376465,           0.
   4797,   5.97882366,   45.8376465,           0.
   4798,   6.47705889,   45.8376465,           0.
   4799,   6.97529411,   45.8376465,           0.
   4800,   7.47352934,   45.8376465,           0.
   4801,   7.97176456,   45.8376465,           0.
   4802,   8.47000027,   45.8376465,           0.
   4803,   8.96823502,   45.8376465,           0.
   4804,   9.46647072,   45.8376465,           0.
   4805,   9.96470547,   45.8376465,           0.
   4806,   10.4629412,   45.8376465,           0.
   4807,   10.9611769,   45.8376465,           0.
   4808,   11.4594116,   45.8376465,           0.
   4809,   11.9576473,   45.8376465,           0.
   4810,   12.4558821,   45.8376465,           0.
   4811,   12.9541178,   45.8376465,           0.
   4812,   13.4523525,   45.8376465,           0.
   4813,   13.9505882,   45.8376465,           0.
   4814,   14.4488239,   45.8376465,           0.
   4815,   14.9470587,   45.8376465,           0.
   4816,   15.4452944,   45.8376465,           0.
   4817,   15.9435291,   45.8376465,           0.
   4818,   16.4417648,   45.8376465,           0.
   4819,   16.9400005,   45.8376465,           0.
   4820,   17.4382362,   45.8376465,           0.
   4821,     17.93647,   45.8376465,           0.
   4822,   18.4347057,   45.8376465,           0.
   4823,   18.9329414,   45.8376465,           0.
   4824,   19.4311771,   45.8376465,           0.
   4825,   19.9294109,   45.8376465,           0.
   4826,   20.4276466,   45.8376465,           0.
   4827,   20.9258823,   45.8376465,           0.
   4828,    21.424118,   45.8376465,           0.
   4829,   21.9223537,   45.8376465,           0.
   4830,   22.4205875,   45.8376465,           0.
   4831,   22.9188232,   45.8376465,           0.
   4832,   23.4170589,   45.8376465,           0.
   4833,   23.9152946,   45.8376465,           0.
   4834,   24.4135303,   45.8376465,           0.
   4835,   24.9117641,   45.8376465,           0.
   4836,   25.4099998,   45.8376465,           0.
   4837,           0.,   46.3358841,           0.
   4838,  0.498235285,   46.3358841,           0.
   4839,  0.996470571,   46.3358841,           0.
   4840,   1.49470592,   46.3358841,           0.
   4841,   1.99294114,   46.3358841,           0.
   4842,   2.49117637,   46.3358841,           0.
   4843,   2.98941183,   46.3358841,           0.
   4844,   3.48764706,   46.3358841,           0.
   4845,   3.98588228,   46.3358841,           0.
   4846,   4.48411751,   46.3358841,           0.
   4847,   4.98235273,   46.3358841,           0.
   4848,   5.48058844,   46.3358841,           0.
   4849,   5.97882366,   46.3358841,           0.
   4850,   6.47705889,   46.3358841,           0.
   4851,   6.97529411,   46.3358841,           0.
   4852,   7.47352934,   46.3358841,           0.
   4853,   7.97176456,   46.3358841,           0.
   4854,   8.47000027,   46.3358841,           0.
   4855,   8.96823502,   46.3358841,           0.
   4856,   9.46647072,   46.3358841,           0.
   4857,   9.96470547,   46.3358841,           0.
   4858,   10.4629412,   46.3358841,           0.
   4859,   10.9611769,   46.3358841,           0.
   4860,   11.4594116,   46.3358841,           0.
   4861,   11.9576473,   46.3358841,           0.
   4862,   12.4558821,   46.3358841,           0.
   4863,   12.9541178,   46.3358841,           0.
   4864,   13.4523525,   46.3358841,           0.
   4865,   13.9505882,   46.3358841,           0.
   4866,   14.4488239,   46.3358841,           0.
   4867,   14.9470587,   46.3358841,           0.
   4868,   15.4452944,   46.3358841,           0.
   4869,   15.9435291,   46.3358841,           0.
   4870,   16.4417648,   46.3358841,           0.
   4871,   16.9400005,   46.3358841,           0.
   4872,   17.4382362,   46.3358841,           0.
   4873,     17.93647,   46.3358841,           0.
   4874,   18.4347057,   46.3358841,           0.
   4875,   18.9329414,   46.3358841,           0.
   4876,   19.4311771,   46.3358841,           0.
   4877,   19.9294109,   46.3358841,           0.
   4878,   20.4276466,   46.3358841,           0.
   4879,   20.9258823,   46.3358841,           0.
   4880,    21.424118,   46.3358841,           0.
   4881,   21.9223537,   46.3358841,           0.
   4882,   22.4205875,   46.3358841,           0.
   4883,   22.9188232,   46.3358841,           0.
   4884,   23.4170589,   46.3358841,           0.
   4885,   23.9152946,   46.3358841,           0.
   4886,   24.4135303,   46.3358841,           0.
   4887,   24.9117641,   46.3358841,           0.
   4888,   25.4099998,   46.3358841,           0.
   4889,           0.,   46.8341179,           0.
   4890,  0.498235285,   46.8341179,           0.
   4891,  0.996470571,   46.8341179,           0.
   4892,   1.49470592,   46.8341179,           0.
   4893,   1.99294114,   46.8341179,           0.
   4894,   2.49117637,   46.8341179,           0.
   4895,   2.98941183,   46.8341179,           0.
   4896,   3.48764706,   46.8341179,           0.
   4897,   3.98588228,   46.8341179,           0.
   4898,   4.48411751,   46.8341179,           0.
   4899,   4.98235273,   46.8341179,           0.
   4900,   5.48058844,   46.8341179,           0.
   4901,   5.97882366,   46.8341179,           0.
   4902,   6.47705889,   46.8341179,           0.
   4903,   6.97529411,   46.8341179,           0.
   4904,   7.47352934,   46.8341179,           0.
   4905,   7.97176456,   46.8341179,           0.
   4906,   8.47000027,   46.8341179,           0.
   4907,   8.96823502,   46.8341179,           0.
   4908,   9.46647072,   46.8341179,           0.
   4909,   9.96470547,   46.8341179,           0.
   4910,   10.4629412,   46.8341179,           0.
   4911,   10.9611769,   46.8341179,           0.
   4912,   11.4594116,   46.8341179,           0.
   4913,   11.9576473,   46.8341179,           0.
   4914,   12.4558821,   46.8341179,           0.
   4915,   12.9541178,   46.8341179,           0.
   4916,   13.4523525,   46.8341179,           0.
   4917,   13.9505882,   46.8341179,           0.
   4918,   14.4488239,   46.8341179,           0.
   4919,   14.9470587,   46.8341179,           0.
   4920,   15.4452944,   46.8341179,           0.
   4921,   15.9435291,   46.8341179,           0.
   4922,   16.4417648,   46.8341179,           0.
   4923,   16.9400005,   46.8341179,           0.
   4924,   17.4382362,   46.8341179,           0.
   4925,     17.93647,   46.8341179,           0.
   4926,   18.4347057,   46.8341179,           0.
   4927,   18.9329414,   46.8341179,           0.
   4928,   19.4311771,   46.8341179,           0.
   4929,   19.9294109,   46.8341179,           0.
   4930,   20.4276466,   46.8341179,           0.
   4931,   20.9258823,   46.8341179,           0.
   4932,    21.424118,   46.8341179,           0.
   4933,   21.9223537,   46.8341179,           0.
   4934,   22.4205875,   46.8341179,           0.
   4935,   22.9188232,   46.8341179,           0.
   4936,   23.4170589,   46.8341179,           0.
   4937,   23.9152946,   46.8341179,           0.
   4938,   24.4135303,   46.8341179,           0.
   4939,   24.9117641,   46.8341179,           0.
   4940,   25.4099998,   46.8341179,           0.
   4941,           0.,   47.3323517,           0.
   4942,  0.498235285,   47.3323517,           0.
   4943,  0.996470571,   47.3323517,           0.
   4944,   1.49470592,   47.3323517,           0.
   4945,   1.99294114,   47.3323517,           0.
   4946,   2.49117637,   47.3323517,           0.
   4947,   2.98941183,   47.3323517,           0.
   4948,   3.48764706,   47.3323517,           0.
   4949,   3.98588228,   47.3323517,           0.
   4950,   4.48411751,   47.3323517,           0.
   4951,   4.98235273,   47.3323517,           0.
   4952,   5.48058844,   47.3323517,           0.
   4953,   5.97882366,   47.3323517,           0.
   4954,   6.47705889,   47.3323517,           0.
   4955,   6.97529411,   47.3323517,           0.
   4956,   7.47352934,   47.3323517,           0.
   4957,   7.97176456,   47.3323517,           0.
   4958,   8.47000027,   47.3323517,           0.
   4959,   8.96823502,   47.3323517,           0.
   4960,   9.46647072,   47.3323517,           0.
   4961,   9.96470547,   47.3323517,           0.
   4962,   10.4629412,   47.3323517,           0.
   4963,   10.9611769,   47.3323517,           0.
   4964,   11.4594116,   47.3323517,           0.
   4965,   11.9576473,   47.3323517,           0.
   4966,   12.4558821,   47.3323517,           0.
   4967,   12.9541178,   47.3323517,           0.
   4968,   13.4523525,   47.3323517,           0.
   4969,   13.9505882,   47.3323517,           0.
   4970,   14.4488239,   47.3323517,           0.
   4971,   14.9470587,   47.3323517,           0.
   4972,   15.4452944,   47.3323517,           0.
   4973,   15.9435291,   47.3323517,           0.
   4974,   16.4417648,   47.3323517,           0.
   4975,   16.9400005,   47.3323517,           0.
   4976,   17.4382362,   47.3323517,           0.
   4977,     17.93647,   47.3323517,           0.
   4978,   18.4347057,   47.3323517,           0.
   4979,   18.9329414,   47.3323517,           0.
   4980,   19.4311771,   47.3323517,           0.
   4981,   19.9294109,   47.3323517,           0.
   4982,   20.4276466,   47.3323517,           0.
   4983,   20.9258823,   47.3323517,           0.
   4984,    21.424118,   47.3323517,           0.
   4985,   21.9223537,   47.3323517,           0.
   4986,   22.4205875,   47.3323517,           0.
   4987,   22.9188232,   47.3323517,           0.
   4988,   23.4170589,   47.3323517,           0.
   4989,   23.9152946,   47.3323517,           0.
   4990,   24.4135303,   47.3323517,           0.
   4991,   24.9117641,   47.3323517,           0.
   4992,   25.4099998,   47.3323517,           0.
   4993,           0.,   47.8305893,           0.
   4994,  0.498235285,   47.8305893,           0.
   4995,  0.996470571,   47.8305893,           0.
   4996,   1.49470592,   47.8305893,           0.
   4997,   1.99294114,   47.8305893,           0.
   4998,   2.49117637,   47.8305893,           0.
   4999,   2.98941183,   47.8305893,           0.
   5000,   3.48764706,   47.8305893,           0.
   5001,   3.98588228,   47.8305893,           0.
   5002,   4.48411751,   47.8305893,           0.
   5003,   4.98235273,   47.8305893,           0.
   5004,   5.48058844,   47.8305893,           0.
   5005,   5.97882366,   47.8305893,           0.
   5006,   6.47705889,   47.8305893,           0.
   5007,   6.97529411,   47.8305893,           0.
   5008,   7.47352934,   47.8305893,           0.
   5009,   7.97176456,   47.8305893,           0.
   5010,   8.47000027,   47.8305893,           0.
   5011,   8.96823502,   47.8305893,           0.
   5012,   9.46647072,   47.8305893,           0.
   5013,   9.96470547,   47.8305893,           0.
   5014,   10.4629412,   47.8305893,           0.
   5015,   10.9611769,   47.8305893,           0.
   5016,   11.4594116,   47.8305893,           0.
   5017,   11.9576473,   47.8305893,           0.
   5018,   12.4558821,   47.8305893,           0.
   5019,   12.9541178,   47.8305893,           0.
   5020,   13.4523525,   47.8305893,           0.
   5021,   13.9505882,   47.8305893,           0.
   5022,   14.4488239,   47.8305893,           0.
   5023,   14.9470587,   47.8305893,           0.
   5024,   15.4452944,   47.8305893,           0.
   5025,   15.9435291,   47.8305893,           0.
   5026,   16.4417648,   47.8305893,           0.
   5027,   16.9400005,   47.8305893,           0.
   5028,   17.4382362,   47.8305893,           0.
   5029,     17.93647,   47.8305893,           0.
   5030,   18.4347057,   47.8305893,           0.
   5031,   18.9329414,   47.8305893,           0.
   5032,   19.4311771,   47.8305893,           0.
   5033,   19.9294109,   47.8305893,           0.
   5034,   20.4276466,   47.8305893,           0.
   5035,   20.9258823,   47.8305893,           0.
   5036,    21.424118,   47.8305893,           0.
   5037,   21.9223537,   47.8305893,           0.
   5038,   22.4205875,   47.8305893,           0.
   5039,   22.9188232,   47.8305893,           0.
   5040,   23.4170589,   47.8305893,           0.
   5041,   23.9152946,   47.8305893,           0.
   5042,   24.4135303,   47.8305893,           0.
   5043,   24.9117641,   47.8305893,           0.
   5044,   25.4099998,   47.8305893,           0.
   5045,           0.,   48.3288231,           0.
   5046,  0.498235285,   48.3288231,           0.
   5047,  0.996470571,   48.3288231,           0.
   5048,   1.49470592,   48.3288231,           0.
   5049,   1.99294114,   48.3288231,           0.
   5050,   2.49117637,   48.3288231,           0.
   5051,   2.98941183,   48.3288231,           0.
   5052,   3.48764706,   48.3288231,           0.
   5053,   3.98588228,   48.3288231,           0.
   5054,   4.48411751,   48.3288231,           0.
   5055,   4.98235273,   48.3288231,           0.
   5056,   5.48058844,   48.3288231,           0.
   5057,   5.97882366,   48.3288231,           0.
   5058,   6.47705889,   48.3288231,           0.
   5059,   6.97529411,   48.3288231,           0.
   5060,   7.47352934,   48.3288231,           0.
   5061,   7.97176456,   48.3288231,           0.
   5062,   8.47000027,   48.3288231,           0.
   5063,   8.96823502,   48.3288231,           0.
   5064,   9.46647072,   48.3288231,           0.
   5065,   9.96470547,   48.3288231,           0.
   5066,   10.4629412,   48.3288231,           0.
   5067,   10.9611769,   48.3288231,           0.
   5068,   11.4594116,   48.3288231,           0.
   5069,   11.9576473,   48.3288231,           0.
   5070,   12.4558821,   48.3288231,           0.
   5071,   12.9541178,   48.3288231,           0.
   5072,   13.4523525,   48.3288231,           0.
   5073,   13.9505882,   48.3288231,           0.
   5074,   14.4488239,   48.3288231,           0.
   5075,   14.9470587,   48.3288231,           0.
   5076,   15.4452944,   48.3288231,           0.
   5077,   15.9435291,   48.3288231,           0.
   5078,   16.4417648,   48.3288231,           0.
   5079,   16.9400005,   48.3288231,           0.
   5080,   17.4382362,   48.3288231,           0.
   5081,     17.93647,   48.3288231,           0.
   5082,   18.4347057,   48.3288231,           0.
   5083,   18.9329414,   48.3288231,           0.
   5084,   19.4311771,   48.3288231,           0.
   5085,   19.9294109,   48.3288231,           0.
   5086,   20.4276466,   48.3288231,           0.
   5087,   20.9258823,   48.3288231,           0.
   5088,    21.424118,   48.3288231,           0.
   5089,   21.9223537,   48.3288231,           0.
   5090,   22.4205875,   48.3288231,           0.
   5091,   22.9188232,   48.3288231,           0.
   5092,   23.4170589,   48.3288231,           0.
   5093,   23.9152946,   48.3288231,           0.
   5094,   24.4135303,   48.3288231,           0.
   5095,   24.9117641,   48.3288231,           0.
   5096,   25.4099998,   48.3288231,           0.
   5097,           0.,   48.8270607,           0.
   5098,  0.498235285,   48.8270607,           0.
   5099,  0.996470571,   48.8270607,           0.
   5100,   1.49470592,   48.8270607,           0.
   5101,   1.99294114,   48.8270607,           0.
   5102,   2.49117637,   48.8270607,           0.
   5103,   2.98941183,   48.8270607,           0.
   5104,   3.48764706,   48.8270607,           0.
   5105,   3.98588228,   48.8270607,           0.
   5106,   4.48411751,   48.8270607,           0.
   5107,   4.98235273,   48.8270607,           0.
   5108,   5.48058844,   48.8270607,           0.
   5109,   5.97882366,   48.8270607,           0.
   5110,   6.47705889,   48.8270607,           0.
   5111,   6.97529411,   48.8270607,           0.
   5112,   7.47352934,   48.8270607,           0.
   5113,   7.97176456,   48.8270607,           0.
   5114,   8.47000027,   48.8270607,           0.
   5115,   8.96823502,   48.8270607,           0.
   5116,   9.46647072,   48.8270607,           0.
   5117,   9.96470547,   48.8270607,           0.
   5118,   10.4629412,   48.8270607,           0.
   5119,   10.9611769,   48.8270607,           0.
   5120,   11.4594116,   48.8270607,           0.
   5121,   11.9576473,   48.8270607,           0.
   5122,   12.4558821,   48.8270607,           0.
   5123,   12.9541178,   48.8270607,           0.
   5124,   13.4523525,   48.8270607,           0.
   5125,   13.9505882,   48.8270607,           0.
   5126,   14.4488239,   48.8270607,           0.
   5127,   14.9470587,   48.8270607,           0.
   5128,   15.4452944,   48.8270607,           0.
   5129,   15.9435291,   48.8270607,           0.
   5130,   16.4417648,   48.8270607,           0.
   5131,   16.9400005,   48.8270607,           0.
   5132,   17.4382362,   48.8270607,           0.
   5133,     17.93647,   48.8270607,           0.
   5134,   18.4347057,   48.8270607,           0.
   5135,   18.9329414,   48.8270607,           0.
   5136,   19.4311771,   48.8270607,           0.
   5137,   19.9294109,   48.8270607,           0.
   5138,   20.4276466,   48.8270607,           0.
   5139,   20.9258823,   48.8270607,           0.
   5140,    21.424118,   48.8270607,           0.
   5141,   21.9223537,   48.8270607,           0.
   5142,   22.4205875,   48.8270607,           0.
   5143,   22.9188232,   48.8270607,           0.
   5144,   23.4170589,   48.8270607,           0.
   5145,   23.9152946,   48.8270607,           0.
   5146,   24.4135303,   48.8270607,           0.
   5147,   24.9117641,   48.8270607,           0.
   5148,   25.4099998,   48.8270607,           0.
   5149,           0.,   49.3252945,           0.
   5150,  0.498235285,   49.3252945,           0.
   5151,  0.996470571,   49.3252945,           0.
   5152,   1.49470592,   49.3252945,           0.
   5153,   1.99294114,   49.3252945,           0.
   5154,   2.49117637,   49.3252945,           0.
   5155,   2.98941183,   49.3252945,           0.
   5156,   3.48764706,   49.3252945,           0.
   5157,   3.98588228,   49.3252945,           0.
   5158,   4.48411751,   49.3252945,           0.
   5159,   4.98235273,   49.3252945,           0.
   5160,   5.48058844,   49.3252945,           0.
   5161,   5.97882366,   49.3252945,           0.
   5162,   6.47705889,   49.3252945,           0.
   5163,   6.97529411,   49.3252945,           0.
   5164,   7.47352934,   49.3252945,           0.
   5165,   7.97176456,   49.3252945,           0.
   5166,   8.47000027,   49.3252945,           0.
   5167,   8.96823502,   49.3252945,           0.
   5168,   9.46647072,   49.3252945,           0.
   5169,   9.96470547,   49.3252945,           0.
   5170,   10.4629412,   49.3252945,           0.
   5171,   10.9611769,   49.3252945,           0.
   5172,   11.4594116,   49.3252945,           0.
   5173,   11.9576473,   49.3252945,           0.
   5174,   12.4558821,   49.3252945,           0.
   5175,   12.9541178,   49.3252945,           0.
   5176,   13.4523525,   49.3252945,           0.
   5177,   13.9505882,   49.3252945,           0.
   5178,   14.4488239,   49.3252945,           0.
   5179,   14.9470587,   49.3252945,           0.
   5180,   15.4452944,   49.3252945,           0.
   5181,   15.9435291,   49.3252945,           0.
   5182,   16.4417648,   49.3252945,           0.
   5183,   16.9400005,   49.3252945,           0.
   5184,   17.4382362,   49.3252945,           0.
   5185,     17.93647,   49.3252945,           0.
   5186,   18.4347057,   49.3252945,           0.
   5187,   18.9329414,   49.3252945,           0.
   5188,   19.4311771,   49.3252945,           0.
   5189,   19.9294109,   49.3252945,           0.
   5190,   20.4276466,   49.3252945,           0.
   5191,   20.9258823,   49.3252945,           0.
   5192,    21.424118,   49.3252945,           0.
   5193,   21.9223537,   49.3252945,           0.
   5194,   22.4205875,   49.3252945,           0.
   5195,   22.9188232,   49.3252945,           0.
   5196,   23.4170589,   49.3252945,           0.
   5197,   23.9152946,   49.3252945,           0.
   5198,   24.4135303,   49.3252945,           0.
   5199,   24.9117641,   49.3252945,           0.
   5200,   25.4099998,   49.3252945,           0.
   5201,           0.,   49.8235283,           0.
   5202,  0.498235285,   49.8235283,           0.
   5203,  0.996470571,   49.8235283,           0.
   5204,   1.49470592,   49.8235283,           0.
   5205,   1.99294114,   49.8235283,           0.
   5206,   2.49117637,   49.8235283,           0.
   5207,   2.98941183,   49.8235283,           0.
   5208,   3.48764706,   49.8235283,           0.
   5209,   3.98588228,   49.8235283,           0.
   5210,   4.48411751,   49.8235283,           0.
   5211,   4.98235273,   49.8235283,           0.
   5212,   5.48058844,   49.8235283,           0.
   5213,   5.97882366,   49.8235283,           0.
   5214,   6.47705889,   49.8235283,           0.
   5215,   6.97529411,   49.8235283,           0.
   5216,   7.47352934,   49.8235283,           0.
   5217,   7.97176456,   49.8235283,           0.
   5218,   8.47000027,   49.8235283,           0.
   5219,   8.96823502,   49.8235283,           0.
   5220,   9.46647072,   49.8235283,           0.
   5221,   9.96470547,   49.8235283,           0.
   5222,   10.4629412,   49.8235283,           0.
   5223,   10.9611769,   49.8235283,           0.
   5224,   11.4594116,   49.8235283,           0.
   5225,   11.9576473,   49.8235283,           0.
   5226,   12.4558821,   49.8235283,           0.
   5227,   12.9541178,   49.8235283,           0.
   5228,   13.4523525,   49.8235283,           0.
   5229,   13.9505882,   49.8235283,           0.
   5230,   14.4488239,   49.8235283,           0.
   5231,   14.9470587,   49.8235283,           0.
   5232,   15.4452944,   49.8235283,           0.
   5233,   15.9435291,   49.8235283,           0.
   5234,   16.4417648,   49.8235283,           0.
   5235,   16.9400005,   49.8235283,           0.
   5236,   17.4382362,   49.8235283,           0.
   5237,     17.93647,   49.8235283,           0.
   5238,   18.4347057,   49.8235283,           0.
   5239,   18.9329414,   49.8235283,           0.
   5240,   19.4311771,   49.8235283,           0.
   5241,   19.9294109,   49.8235283,           0.
   5242,   20.4276466,   49.8235283,           0.
   5243,   20.9258823,   49.8235283,           0.
   5244,    21.424118,   49.8235283,           0.
   5245,   21.9223537,   49.8235283,           0.
   5246,   22.4205875,   49.8235283,           0.
   5247,   22.9188232,   49.8235283,           0.
   5248,   23.4170589,   49.8235283,           0.
   5249,   23.9152946,   49.8235283,           0.
   5250,   24.4135303,   49.8235283,           0.
   5251,   24.9117641,   49.8235283,           0.
   5252,   25.4099998,   49.8235283,           0.
   5253,           0.,   50.3217659,           0.
   5254,  0.498235285,   50.3217659,           0.
   5255,  0.996470571,   50.3217659,           0.
   5256,   1.49470592,   50.3217659,           0.
   5257,   1.99294114,   50.3217659,           0.
   5258,   2.49117637,   50.3217659,           0.
   5259,   2.98941183,   50.3217659,           0.
   5260,   3.48764706,   50.3217659,           0.
   5261,   3.98588228,   50.3217659,           0.
   5262,   4.48411751,   50.3217659,           0.
   5263,   4.98235273,   50.3217659,           0.
   5264,   5.48058844,   50.3217659,           0.
   5265,   5.97882366,   50.3217659,           0.
   5266,   6.47705889,   50.3217659,           0.
   5267,   6.97529411,   50.3217659,           0.
   5268,   7.47352934,   50.3217659,           0.
   5269,   7.97176456,   50.3217659,           0.
   5270,   8.47000027,   50.3217659,           0.
   5271,   8.96823502,   50.3217659,           0.
   5272,   9.46647072,   50.3217659,           0.
   5273,   9.96470547,   50.3217659,           0.
   5274,   10.4629412,   50.3217659,           0.
   5275,   10.9611769,   50.3217659,           0.
   5276,   11.4594116,   50.3217659,           0.
   5277,   11.9576473,   50.3217659,           0.
   5278,   12.4558821,   50.3217659,           0.
   5279,   12.9541178,   50.3217659,           0.
   5280,   13.4523525,   50.3217659,           0.
   5281,   13.9505882,   50.3217659,           0.
   5282,   14.4488239,   50.3217659,           0.
   5283,   14.9470587,   50.3217659,           0.
   5284,   15.4452944,   50.3217659,           0.
   5285,   15.9435291,   50.3217659,           0.
   5286,   16.4417648,   50.3217659,           0.
   5287,   16.9400005,   50.3217659,           0.
   5288,   17.4382362,   50.3217659,           0.
   5289,     17.93647,   50.3217659,           0.
   5290,   18.4347057,   50.3217659,           0.
   5291,   18.9329414,   50.3217659,           0.
   5292,   19.4311771,   50.3217659,           0.
   5293,   19.9294109,   50.3217659,           0.
   5294,   20.4276466,   50.3217659,           0.
   5295,   20.9258823,   50.3217659,           0.
   5296,    21.424118,   50.3217659,           0.
   5297,   21.9223537,   50.3217659,           0.
   5298,   22.4205875,   50.3217659,           0.
   5299,   22.9188232,   50.3217659,           0.
   5300,   23.4170589,   50.3217659,           0.
   5301,   23.9152946,   50.3217659,           0.
   5302,   24.4135303,   50.3217659,           0.
   5303,   24.9117641,   50.3217659,           0.
   5304,   25.4099998,   50.3217659,           0.
   5305,           0.,   50.8199997,           0.
   5306,  0.498235285,   50.8199997,           0.
   5307,  0.996470571,   50.8199997,           0.
   5308,   1.49470592,   50.8199997,           0.
   5309,   1.99294114,   50.8199997,           0.
   5310,   2.49117637,   50.8199997,           0.
   5311,   2.98941183,   50.8199997,           0.
   5312,   3.48764706,   50.8199997,           0.
   5313,   3.98588228,   50.8199997,           0.
   5314,   4.48411751,   50.8199997,           0.
   5315,   4.98235273,   50.8199997,           0.
   5316,   5.48058844,   50.8199997,           0.
   5317,   5.97882366,   50.8199997,           0.
   5318,   6.47705889,   50.8199997,           0.
   5319,   6.97529411,   50.8199997,           0.
   5320,   7.47352934,   50.8199997,           0.
   5321,   7.97176456,   50.8199997,           0.
   5322,   8.47000027,   50.8199997,           0.
   5323,   8.96823502,   50.8199997,           0.
   5324,   9.46647072,   50.8199997,           0.
   5325,   9.96470547,   50.8199997,           0.
   5326,   10.4629412,   50.8199997,           0.
   5327,   10.9611769,   50.8199997,           0.
   5328,   11.4594116,   50.8199997,           0.
   5329,   11.9576473,   50.8199997,           0.
   5330,   12.4558821,   50.8199997,           0.
   5331,   12.9541178,   50.8199997,           0.
   5332,   13.4523525,   50.8199997,           0.
   5333,   13.9505882,   50.8199997,           0.
   5334,   14.4488239,   50.8199997,           0.
   5335,   14.9470587,   50.8199997,           0.
   5336,   15.4452944,   50.8199997,           0.
   5337,   15.9435291,   50.8199997,           0.
   5338,   16.4417648,   50.8199997,           0.
   5339,   16.9400005,   50.8199997,           0.
   5340,   17.4382362,   50.8199997,           0.
   5341,     17.93647,   50.8199997,           0.
   5342,   18.4347057,   50.8199997,           0.
   5343,   18.9329414,   50.8199997,           0.
   5344,   19.4311771,   50.8199997,           0.
   5345,   19.9294109,   50.8199997,           0.
   5346,   20.4276466,   50.8199997,           0.
   5347,   20.9258823,   50.8199997,           0.
   5348,    21.424118,   50.8199997,           0.
   5349,   21.9223537,   50.8199997,           0.
   5350,   22.4205875,   50.8199997,           0.
   5351,   22.9188232,   50.8199997,           0.
   5352,   23.4170589,   50.8199997,           0.
   5353,   23.9152946,   50.8199997,           0.
   5354,   24.4135303,   50.8199997,           0.
   5355,   24.9117641,   50.8199997,           0.
   5356,   25.4099998,   50.8199997,           0.
*Element, type=S4R
   1,    1,    2,   54,   53
   2,    2,    3,   55,   54
   3,    3,    4,   56,   55
   4,    4,    5,   57,   56
   5,    5,    6,   58,   57
   6,    6,    7,   59,   58
   7,    7,    8,   60,   59
   8,    8,    9,   61,   60
   9,    9,   10,   62,   61
  10,   10,   11,   63,   62
  11,   11,   12,   64,   63
  12,   12,   13,   65,   64
  13,   13,   14,   66,   65
  14,   14,   15,   67,   66
  15,   15,   16,   68,   67
  16,   16,   17,   69,   68
  17,   17,   18,   70,   69
  18,   18,   19,   71,   70
  19,   19,   20,   72,   71
  20,   20,   21,   73,   72
  21,   21,   22,   74,   73
  22,   22,   23,   75,   74
  23,   23,   24,   76,   75
  24,   24,   25,   77,   76
  25,   25,   26,   78,   77
  26,   26,   27,   79,   78
  27,   27,   28,   80,   79
  28,   28,   29,   81,   80
  29,   29,   30,   82,   81
  30,   30,   31,   83,   82
  31,   31,   32,   84,   83
  32,   32,   33,   85,   84
  33,   33,   34,   86,   85
  34,   34,   35,   87,   86
  35,   35,   36,   88,   87
  36,   36,   37,   89,   88
  37,   37,   38,   90,   89
  38,   38,   39,   91,   90
  39,   39,   40,   92,   91
  40,   40,   41,   93,   92
  41,   41,   42,   94,   93
  42,   42,   43,   95,   94
  43,   43,   44,   96,   95
  44,   44,   45,   97,   96
  45,   45,   46,   98,   97
  46,   46,   47,   99,   98
  47,   47,   48,  100,   99
  48,   48,   49,  101,  100
  49,   49,   50,  102,  101
  50,   50,   51,  103,  102
  51,   51,   52,  104,  103
  52,   53,   54,  106,  105
  53,   54,   55,  107,  106
  54,   55,   56,  108,  107
  55,   56,   57,  109,  108
  56,   57,   58,  110,  109
  57,   58,   59,  111,  110
  58,   59,   60,  112,  111
  59,   60,   61,  113,  112
  60,   61,   62,  114,  113
  61,   62,   63,  115,  114
  62,   63,   64,  116,  115
  63,   64,   65,  117,  116
  64,   65,   66,  118,  117
  65,   66,   67,  119,  118
  66,   67,   68,  120,  119
  67,   68,   69,  121,  120
  68,   69,   70,  122,  121
  69,   70,   71,  123,  122
  70,   71,   72,  124,  123
  71,   72,   73,  125,  124
  72,   73,   74,  126,  125
  73,   74,   75,  127,  126
  74,   75,   76,  128,  127
  75,   76,   77,  129,  128
  76,   77,   78,  130,  129
  77,   78,   79,  131,  130
  78,   79,   80,  132,  131
  79,   80,   81,  133,  132
  80,   81,   82,  134,  133
  81,   82,   83,  135,  134
  82,   83,   84,  136,  135
  83,   84,   85,  137,  136
  84,   85,   86,  138,  137
  85,   86,   87,  139,  138
  86,   87,   88,  140,  139
  87,   88,   89,  141,  140
  88,   89,   90,  142,  141
  89,   90,   91,  143,  142
  90,   91,   92,  144,  143
  91,   92,   93,  145,  144
  92,   93,   94,  146,  145
  93,   94,   95,  147,  146
  94,   95,   96,  148,  147
  95,   96,   97,  149,  148
  96,   97,   98,  150,  149
  97,   98,   99,  151,  150
  98,   99,  100,  152,  151
  99,  100,  101,  153,  152
 100,  101,  102,  154,  153
 101,  102,  103,  155,  154
 102,  103,  104,  156,  155
 103,  105,  106,  158,  157
 104,  106,  107,  159,  158
 105,  107,  108,  160,  159
 106,  108,  109,  161,  160
 107,  109,  110,  162,  161
 108,  110,  111,  163,  162
 109,  111,  112,  164,  163
 110,  112,  113,  165,  164
 111,  113,  114,  166,  165
 112,  114,  115,  167,  166
 113,  115,  116,  168,  167
 114,  116,  117,  169,  168
 115,  117,  118,  170,  169
 116,  118,  119,  171,  170
 117,  119,  120,  172,  171
 118,  120,  121,  173,  172
 119,  121,  122,  174,  173
 120,  122,  123,  175,  174
 121,  123,  124,  176,  175
 122,  124,  125,  177,  176
 123,  125,  126,  178,  177
 124,  126,  127,  179,  178
 125,  127,  128,  180,  179
 126,  128,  129,  181,  180
 127,  129,  130,  182,  181
 128,  130,  131,  183,  182
 129,  131,  132,  184,  183
 130,  132,  133,  185,  184
 131,  133,  134,  186,  185
 132,  134,  135,  187,  186
 133,  135,  136,  188,  187
 134,  136,  137,  189,  188
 135,  137,  138,  190,  189
 136,  138,  139,  191,  190
 137,  139,  140,  192,  191
 138,  140,  141,  193,  192
 139,  141,  142,  194,  193
 140,  142,  143,  195,  194
 141,  143,  144,  196,  195
 142,  144,  145,  197,  196
 143,  145,  146,  198,  197
 144,  146,  147,  199,  198
 145,  147,  148,  200,  199
 146,  148,  149,  201,  200
 147,  149,  150,  202,  201
 148,  150,  151,  203,  202
 149,  151,  152,  204,  203
 150,  152,  153,  205,  204
 151,  153,  154,  206,  205
 152,  154,  155,  207,  206
 153,  155,  156,  208,  207
 154,  157,  158,  210,  209
 155,  158,  159,  211,  210
 156,  159,  160,  212,  211
 157,  160,  161,  213,  212
 158,  161,  162,  214,  213
 159,  162,  163,  215,  214
 160,  163,  164,  216,  215
 161,  164,  165,  217,  216
 162,  165,  166,  218,  217
 163,  166,  167,  219,  218
 164,  167,  168,  220,  219
 165,  168,  169,  221,  220
 166,  169,  170,  222,  221
 167,  170,  171,  223,  222
 168,  171,  172,  224,  223
 169,  172,  173,  225,  224
 170,  173,  174,  226,  225
 171,  174,  175,  227,  226
 172,  175,  176,  228,  227
 173,  176,  177,  229,  228
 174,  177,  178,  230,  229
 175,  178,  179,  231,  230
 176,  179,  180,  232,  231
 177,  180,  181,  233,  232
 178,  181,  182,  234,  233
 179,  182,  183,  235,  234
 180,  183,  184,  236,  235
 181,  184,  185,  237,  236
 182,  185,  186,  238,  237
 183,  186,  187,  239,  238
 184,  187,  188,  240,  239
 185,  188,  189,  241,  240
 186,  189,  190,  242,  241
 187,  190,  191,  243,  242
 188,  191,  192,  244,  243
 189,  192,  193,  245,  244
 190,  193,  194,  246,  245
 191,  194,  195,  247,  246
 192,  195,  196,  248,  247
 193,  196,  197,  249,  248
 194,  197,  198,  250,  249
 195,  198,  199,  251,  250
 196,  199,  200,  252,  251
 197,  200,  201,  253,  252
 198,  201,  202,  254,  253
 199,  202,  203,  255,  254
 200,  203,  204,  256,  255
 201,  204,  205,  257,  256
 202,  205,  206,  258,  257
 203,  206,  207,  259,  258
 204,  207,  208,  260,  259
 205,  209,  210,  262,  261
 206,  210,  211,  263,  262
 207,  211,  212,  264,  263
 208,  212,  213,  265,  264
 209,  213,  214,  266,  265
 210,  214,  215,  267,  266
 211,  215,  216,  268,  267
 212,  216,  217,  269,  268
 213,  217,  218,  270,  269
 214,  218,  219,  271,  270
 215,  219,  220,  272,  271
 216,  220,  221,  273,  272
 217,  221,  222,  274,  273
 218,  222,  223,  275,  274
 219,  223,  224,  276,  275
 220,  224,  225,  277,  276
 221,  225,  226,  278,  277
 222,  226,  227,  279,  278
 223,  227,  228,  280,  279
 224,  228,  229,  281,  280
 225,  229,  230,  282,  281
 226,  230,  231,  283,  282
 227,  231,  232,  284,  283
 228,  232,  233,  285,  284
 229,  233,  234,  286,  285
 230,  234,  235,  287,  286
 231,  235,  236,  288,  287
 232,  236,  237,  289,  288
 233,  237,  238,  290,  289
 234,  238,  239,  291,  290
 235,  239,  240,  292,  291
 236,  240,  241,  293,  292
 237,  241,  242,  294,  293
 238,  242,  243,  295,  294
 239,  243,  244,  296,  295
 240,  244,  245,  297,  296
 241,  245,  246,  298,  297
 242,  246,  247,  299,  298
 243,  247,  248,  300,  299
 244,  248,  249,  301,  300
 245,  249,  250,  302,  301
 246,  250,  251,  303,  302
 247,  251,  252,  304,  303
 248,  252,  253,  305,  304
 249,  253,  254,  306,  305
 250,  254,  255,  307,  306
 251,  255,  256,  308,  307
 252,  256,  257,  309,  308
 253,  257,  258,  310,  309
 254,  258,  259,  311,  310
 255,  259,  260,  312,  311
 256,  261,  262,  314,  313
 257,  262,  263,  315,  314
 258,  263,  264,  316,  315
 259,  264,  265,  317,  316
 260,  265,  266,  318,  317
 261,  266,  267,  319,  318
 262,  267,  268,  320,  319
 263,  268,  269,  321,  320
 264,  269,  270,  322,  321
 265,  270,  271,  323,  322
 266,  271,  272,  324,  323
 267,  272,  273,  325,  324
 268,  273,  274,  326,  325
 269,  274,  275,  327,  326
 270,  275,  276,  328,  327
 271,  276,  277,  329,  328
 272,  277,  278,  330,  329
 273,  278,  279,  331,  330
 274,  279,  280,  332,  331
 275,  280,  281,  333,  332
 276,  281,  282,  334,  333
 277,  282,  283,  335,  334
 278,  283,  284,  336,  335
 279,  284,  285,  337,  336
 280,  285,  286,  338,  337
 281,  286,  287,  339,  338
 282,  287,  288,  340,  339
 283,  288,  289,  341,  340
 284,  289,  290,  342,  341
 285,  290,  291,  343,  342
 286,  291,  292,  344,  343
 287,  292,  293,  345,  344
 288,  293,  294,  346,  345
 289,  294,  295,  347,  346
 290,  295,  296,  348,  347
 291,  296,  297,  349,  348
 292,  297,  298,  350,  349
 293,  298,  299,  351,  350
 294,  299,  300,  352,  351
 295,  300,  301,  353,  352
 296,  301,  302,  354,  353
 297,  302,  303,  355,  354
 298,  303,  304,  356,  355
 299,  304,  305,  357,  356
 300,  305,  306,  358,  357
 301,  306,  307,  359,  358
 302,  307,  308,  360,  359
 303,  308,  309,  361,  360
 304,  309,  310,  362,  361
 305,  310,  311,  363,  362
 306,  311,  312,  364,  363
 307,  313,  314,  366,  365
 308,  314,  315,  367,  366
 309,  315,  316,  368,  367
 310,  316,  317,  369,  368
 311,  317,  318,  370,  369
 312,  318,  319,  371,  370
 313,  319,  320,  372,  371
 314,  320,  321,  373,  372
 315,  321,  322,  374,  373
 316,  322,  323,  375,  374
 317,  323,  324,  376,  375
 318,  324,  325,  377,  376
 319,  325,  326,  378,  377
 320,  326,  327,  379,  378
 321,  327,  328,  380,  379
 322,  328,  329,  381,  380
 323,  329,  330,  382,  381
 324,  330,  331,  383,  382
 325,  331,  332,  384,  383
 326,  332,  333,  385,  384
 327,  333,  334,  386,  385
 328,  334,  335,  387,  386
 329,  335,  336,  388,  387
 330,  336,  337,  389,  388
 331,  337,  338,  390,  389
 332,  338,  339,  391,  390
 333,  339,  340,  392,  391
 334,  340,  341,  393,  392
 335,  341,  342,  394,  393
 336,  342,  343,  395,  394
 337,  343,  344,  396,  395
 338,  344,  345,  397,  396
 339,  345,  346,  398,  397
 340,  346,  347,  399,  398
 341,  347,  348,  400,  399
 342,  348,  349,  401,  400
 343,  349,  350,  402,  401
 344,  350,  351,  403,  402
 345,  351,  352,  404,  403
 346,  352,  353,  405,  404
 347,  353,  354,  406,  405
 348,  354,  355,  407,  406
 349,  355,  356,  408,  407
 350,  356,  357,  409,  408
 351,  357,  358,  410,  409
 352,  358,  359,  411,  410
 353,  359,  360,  412,  411
 354,  360,  361,  413,  412
 355,  361,  362,  414,  413
 356,  362,  363,  415,  414
 357,  363,  364,  416,  415
 358,  365,  366,  418,  417
 359,  366,  367,  419,  418
 360,  367,  368,  420,  419
 361,  368,  369,  421,  420
 362,  369,  370,  422,  421
 363,  370,  371,  423,  422
 364,  371,  372,  424,  423
 365,  372,  373,  425,  424
 366,  373,  374,  426,  425
 367,  374,  375,  427,  426
 368,  375,  376,  428,  427
 369,  376,  377,  429,  428
 370,  377,  378,  430,  429
 371,  378,  379,  431,  430
 372,  379,  380,  432,  431
 373,  380,  381,  433,  432
 374,  381,  382,  434,  433
 375,  382,  383,  435,  434
 376,  383,  384,  436,  435
 377,  384,  385,  437,  436
 378,  385,  386,  438,  437
 379,  386,  387,  439,  438
 380,  387,  388,  440,  439
 381,  388,  389,  441,  440
 382,  389,  390,  442,  441
 383,  390,  391,  443,  442
 384,  391,  392,  444,  443
 385,  392,  393,  445,  444
 386,  393,  394,  446,  445
 387,  394,  395,  447,  446
 388,  395,  396,  448,  447
 389,  396,  397,  449,  448
 390,  397,  398,  450,  449
 391,  398,  399,  451,  450
 392,  399,  400,  452,  451
 393,  400,  401,  453,  452
 394,  401,  402,  454,  453
 395,  402,  403,  455,  454
 396,  403,  404,  456,  455
 397,  404,  405,  457,  456
 398,  405,  406,  458,  457
 399,  406,  407,  459,  458
 400,  407,  408,  460,  459
 401,  408,  409,  461,  460
 402,  409,  410,  462,  461
 403,  410,  411,  463,  462
 404,  411,  412,  464,  463
 405,  412,  413,  465,  464
 406,  413,  414,  466,  465
 407,  414,  415,  467,  466
 408,  415,  416,  468,  467
 409,  417,  418,  470,  469
 410,  418,  419,  471,  470
 411,  419,  420,  472,  471
 412,  420,  421,  473,  472
 413,  421,  422,  474,  473
 414,  422,  423,  475,  474
 415,  423,  424,  476,  475
 416,  424,  425,  477,  476
 417,  425,  426,  478,  477
 418,  426,  427,  479,  478
 419,  427,  428,  480,  479
 420,  428,  429,  481,  480
 421,  429,  430,  482,  481
 422,  430,  431,  483,  482
 423,  431,  432,  484,  483
 424,  432,  433,  485,  484
 425,  433,  434,  486,  485
 426,  434,  435,  487,  486
 427,  435,  436,  488,  487
 428,  436,  437,  489,  488
 429,  437,  438,  490,  489
 430,  438,  439,  491,  490
 431,  439,  440,  492,  491
 432,  440,  441,  493,  492
 433,  441,  442,  494,  493
 434,  442,  443,  495,  494
 435,  443,  444,  496,  495
 436,  444,  445,  497,  496
 437,  445,  446,  498,  497
 438,  446,  447,  499,  498
 439,  447,  448,  500,  499
 440,  448,  449,  501,  500
 441,  449,  450,  502,  501
 442,  450,  451,  503,  502
 443,  451,  452,  504,  503
 444,  452,  453,  505,  504
 445,  453,  454,  506,  505
 446,  454,  455,  507,  506
 447,  455,  456,  508,  507
 448,  456,  457,  509,  508
 449,  457,  458,  510,  509
 450,  458,  459,  511,  510
 451,  459,  460,  512,  511
 452,  460,  461,  513,  512
 453,  461,  462,  514,  513
 454,  462,  463,  515,  514
 455,  463,  464,  516,  515
 456,  464,  465,  517,  516
 457,  465,  466,  518,  517
 458,  466,  467,  519,  518
 459,  467,  468,  520,  519
 460,  469,  470,  522,  521
 461,  470,  471,  523,  522
 462,  471,  472,  524,  523
 463,  472,  473,  525,  524
 464,  473,  474,  526,  525
 465,  474,  475,  527,  526
 466,  475,  476,  528,  527
 467,  476,  477,  529,  528
 468,  477,  478,  530,  529
 469,  478,  479,  531,  530
 470,  479,  480,  532,  531
 471,  480,  481,  533,  532
 472,  481,  482,  534,  533
 473,  482,  483,  535,  534
 474,  483,  484,  536,  535
 475,  484,  485,  537,  536
 476,  485,  486,  538,  537
 477,  486,  487,  539,  538
 478,  487,  488,  540,  539
 479,  488,  489,  541,  540
 480,  489,  490,  542,  541
 481,  490,  491,  543,  542
 482,  491,  492,  544,  543
 483,  492,  493,  545,  544
 484,  493,  494,  546,  545
 485,  494,  495,  547,  546
 486,  495,  496,  548,  547
 487,  496,  497,  549,  548
 488,  497,  498,  550,  549
 489,  498,  499,  551,  550
 490,  499,  500,  552,  551
 491,  500,  501,  553,  552
 492,  501,  502,  554,  553
 493,  502,  503,  555,  554
 494,  503,  504,  556,  555
 495,  504,  505,  557,  556
 496,  505,  506,  558,  557
 497,  506,  507,  559,  558
 498,  507,  508,  560,  559
 499,  508,  509,  561,  560
 500,  509,  510,  562,  561
 501,  510,  511,  563,  562
 502,  511,  512,  564,  563
 503,  512,  513,  565,  564
 504,  513,  514,  566,  565
 505,  514,  515,  567,  566
 506,  515,  516,  568,  567
 507,  516,  517,  569,  568
 508,  517,  518,  570,  569
 509,  518,  519,  571,  570
 510,  519,  520,  572,  571
 511,  521,  522,  574,  573
 512,  522,  523,  575,  574
 513,  523,  524,  576,  575
 514,  524,  525,  577,  576
 515,  525,  526,  578,  577
 516,  526,  527,  579,  578
 517,  527,  528,  580,  579
 518,  528,  529,  581,  580
 519,  529,  530,  582,  581
 520,  530,  531,  583,  582
 521,  531,  532,  584,  583
 522,  532,  533,  585,  584
 523,  533,  534,  586,  585
 524,  534,  535,  587,  586
 525,  535,  536,  588,  587
 526,  536,  537,  589,  588
 527,  537,  538,  590,  589
 528,  538,  539,  591,  590
 529,  539,  540,  592,  591
 530,  540,  541,  593,  592
 531,  541,  542,  594,  593
 532,  542,  543,  595,  594
 533,  543,  544,  596,  595
 534,  544,  545,  597,  596
 535,  545,  546,  598,  597
 536,  546,  547,  599,  598
 537,  547,  548,  600,  599
 538,  548,  549,  601,  600
 539,  549,  550,  602,  601
 540,  550,  551,  603,  602
 541,  551,  552,  604,  603
 542,  552,  553,  605,  604
 543,  553,  554,  606,  605
 544,  554,  555,  607,  606
 545,  555,  556,  608,  607
 546,  556,  557,  609,  608
 547,  557,  558,  610,  609
 548,  558,  559,  611,  610
 549,  559,  560,  612,  611
 550,  560,  561,  613,  612
 551,  561,  562,  614,  613
 552,  562,  563,  615,  614
 553,  563,  564,  616,  615
 554,  564,  565,  617,  616
 555,  565,  566,  618,  617
 556,  566,  567,  619,  618
 557,  567,  568,  620,  619
 558,  568,  569,  621,  620
 559,  569,  570,  622,  621
 560,  570,  571,  623,  622
 561,  571,  572,  624,  623
 562,  573,  574,  626,  625
 563,  574,  575,  627,  626
 564,  575,  576,  628,  627
 565,  576,  577,  629,  628
 566,  577,  578,  630,  629
 567,  578,  579,  631,  630
 568,  579,  580,  632,  631
 569,  580,  581,  633,  632
 570,  581,  582,  634,  633
 571,  582,  583,  635,  634
 572,  583,  584,  636,  635
 573,  584,  585,  637,  636
 574,  585,  586,  638,  637
 575,  586,  587,  639,  638
 576,  587,  588,  640,  639
 577,  588,  589,  641,  640
 578,  589,  590,  642,  641
 579,  590,  591,  643,  642
 580,  591,  592,  644,  643
 581,  592,  593,  645,  644
 582,  593,  594,  646,  645
 583,  594,  595,  647,  646
 584,  595,  596,  648,  647
 585,  596,  597,  649,  648
 586,  597,  598,  650,  649
 587,  598,  599,  651,  650
 588,  599,  600,  652,  651
 589,  600,  601,  653,  652
 590,  601,  602,  654,  653
 591,  602,  603,  655,  654
 592,  603,  604,  656,  655
 593,  604,  605,  657,  656
 594,  605,  606,  658,  657
 595,  606,  607,  659,  658
 596,  607,  608,  660,  659
 597,  608,  609,  661,  660
 598,  609,  610,  662,  661
 599,  610,  611,  663,  662
 600,  611,  612,  664,  663
 601,  612,  613,  665,  664
 602,  613,  614,  666,  665
 603,  614,  615,  667,  666
 604,  615,  616,  668,  667
 605,  616,  617,  669,  668
 606,  617,  618,  670,  669
 607,  618,  619,  671,  670
 608,  619,  620,  672,  671
 609,  620,  621,  673,  672
 610,  621,  622,  674,  673
 611,  622,  623,  675,  674
 612,  623,  624,  676,  675
 613,  625,  626,  678,  677
 614,  626,  627,  679,  678
 615,  627,  628,  680,  679
 616,  628,  629,  681,  680
 617,  629,  630,  682,  681
 618,  630,  631,  683,  682
 619,  631,  632,  684,  683
 620,  632,  633,  685,  684
 621,  633,  634,  686,  685
 622,  634,  635,  687,  686
 623,  635,  636,  688,  687
 624,  636,  637,  689,  688
 625,  637,  638,  690,  689
 626,  638,  639,  691,  690
 627,  639,  640,  692,  691
 628,  640,  641,  693,  692
 629,  641,  642,  694,  693
 630,  642,  643,  695,  694
 631,  643,  644,  696,  695
 632,  644,  645,  697,  696
 633,  645,  646,  698,  697
 634,  646,  647,  699,  698
 635,  647,  648,  700,  699
 636,  648,  649,  701,  700
 637,  649,  650,  702,  701
 638,  650,  651,  703,  702
 639,  651,  652,  704,  703
 640,  652,  653,  705,  704
 641,  653,  654,  706,  705
 642,  654,  655,  707,  706
 643,  655,  656,  708,  707
 644,  656,  657,  709,  708
 645,  657,  658,  710,  709
 646,  658,  659,  711,  710
 647,  659,  660,  712,  711
 648,  660,  661,  713,  712
 649,  661,  662,  714,  713
 650,  662,  663,  715,  714
 651,  663,  664,  716,  715
 652,  664,  665,  717,  716
 653,  665,  666,  718,  717
 654,  666,  667,  719,  718
 655,  667,  668,  720,  719
 656,  668,  669,  721,  720
 657,  669,  670,  722,  721
 658,  670,  671,  723,  722
 659,  671,  672,  724,  723
 660,  672,  673,  725,  724
 661,  673,  674,  726,  725
 662,  674,  675,  727,  726
 663,  675,  676,  728,  727
 664,  677,  678,  730,  729
 665,  678,  679,  731,  730
 666,  679,  680,  732,  731
 667,  680,  681,  733,  732
 668,  681,  682,  734,  733
 669,  682,  683,  735,  734
 670,  683,  684,  736,  735
 671,  684,  685,  737,  736
 672,  685,  686,  738,  737
 673,  686,  687,  739,  738
 674,  687,  688,  740,  739
 675,  688,  689,  741,  740
 676,  689,  690,  742,  741
 677,  690,  691,  743,  742
 678,  691,  692,  744,  743
 679,  692,  693,  745,  744
 680,  693,  694,  746,  745
 681,  694,  695,  747,  746
 682,  695,  696,  748,  747
 683,  696,  697,  749,  748
 684,  697,  698,  750,  749
 685,  698,  699,  751,  750
 686,  699,  700,  752,  751
 687,  700,  701,  753,  752
 688,  701,  702,  754,  753
 689,  702,  703,  755,  754
 690,  703,  704,  756,  755
 691,  704,  705,  757,  756
 692,  705,  706,  758,  757
 693,  706,  707,  759,  758
 694,  707,  708,  760,  759
 695,  708,  709,  761,  760
 696,  709,  710,  762,  761
 697,  710,  711,  763,  762
 698,  711,  712,  764,  763
 699,  712,  713,  765,  764
 700,  713,  714,  766,  765
 701,  714,  715,  767,  766
 702,  715,  716,  768,  767
 703,  716,  717,  769,  768
 704,  717,  718,  770,  769
 705,  718,  719,  771,  770
 706,  719,  720,  772,  771
 707,  720,  721,  773,  772
 708,  721,  722,  774,  773
 709,  722,  723,  775,  774
 710,  723,  724,  776,  775
 711,  724,  725,  777,  776
 712,  725,  726,  778,  777
 713,  726,  727,  779,  778
 714,  727,  728,  780,  779
 715,  729,  730,  782,  781
 716,  730,  731,  783,  782
 717,  731,  732,  784,  783
 718,  732,  733,  785,  784
 719,  733,  734,  786,  785
 720,  734,  735,  787,  786
 721,  735,  736,  788,  787
 722,  736,  737,  789,  788
 723,  737,  738,  790,  789
 724,  738,  739,  791,  790
 725,  739,  740,  792,  791
 726,  740,  741,  793,  792
 727,  741,  742,  794,  793
 728,  742,  743,  795,  794
 729,  743,  744,  796,  795
 730,  744,  745,  797,  796
 731,  745,  746,  798,  797
 732,  746,  747,  799,  798
 733,  747,  748,  800,  799
 734,  748,  749,  801,  800
 735,  749,  750,  802,  801
 736,  750,  751,  803,  802
 737,  751,  752,  804,  803
 738,  752,  753,  805,  804
 739,  753,  754,  806,  805
 740,  754,  755,  807,  806
 741,  755,  756,  808,  807
 742,  756,  757,  809,  808
 743,  757,  758,  810,  809
 744,  758,  759,  811,  810
 745,  759,  760,  812,  811
 746,  760,  761,  813,  812
 747,  761,  762,  814,  813
 748,  762,  763,  815,  814
 749,  763,  764,  816,  815
 750,  764,  765,  817,  816
 751,  765,  766,  818,  817
 752,  766,  767,  819,  818
 753,  767,  768,  820,  819
 754,  768,  769,  821,  820
 755,  769,  770,  822,  821
 756,  770,  771,  823,  822
 757,  771,  772,  824,  823
 758,  772,  773,  825,  824
 759,  773,  774,  826,  825
 760,  774,  775,  827,  826
 761,  775,  776,  828,  827
 762,  776,  777,  829,  828
 763,  777,  778,  830,  829
 764,  778,  779,  831,  830
 765,  779,  780,  832,  831
 766,  781,  782,  834,  833
 767,  782,  783,  835,  834
 768,  783,  784,  836,  835
 769,  784,  785,  837,  836
 770,  785,  786,  838,  837
 771,  786,  787,  839,  838
 772,  787,  788,  840,  839
 773,  788,  789,  841,  840
 774,  789,  790,  842,  841
 775,  790,  791,  843,  842
 776,  791,  792,  844,  843
 777,  792,  793,  845,  844
 778,  793,  794,  846,  845
 779,  794,  795,  847,  846
 780,  795,  796,  848,  847
 781,  796,  797,  849,  848
 782,  797,  798,  850,  849
 783,  798,  799,  851,  850
 784,  799,  800,  852,  851
 785,  800,  801,  853,  852
 786,  801,  802,  854,  853
 787,  802,  803,  855,  854
 788,  803,  804,  856,  855
 789,  804,  805,  857,  856
 790,  805,  806,  858,  857
 791,  806,  807,  859,  858
 792,  807,  808,  860,  859
 793,  808,  809,  861,  860
 794,  809,  810,  862,  861
 795,  810,  811,  863,  862
 796,  811,  812,  864,  863
 797,  812,  813,  865,  864
 798,  813,  814,  866,  865
 799,  814,  815,  867,  866
 800,  815,  816,  868,  867
 801,  816,  817,  869,  868
 802,  817,  818,  870,  869
 803,  818,  819,  871,  870
 804,  819,  820,  872,  871
 805,  820,  821,  873,  872
 806,  821,  822,  874,  873
 807,  822,  823,  875,  874
 808,  823,  824,  876,  875
 809,  824,  825,  877,  876
 810,  825,  826,  878,  877
 811,  826,  827,  879,  878
 812,  827,  828,  880,  879
 813,  828,  829,  881,  880
 814,  829,  830,  882,  881
 815,  830,  831,  883,  882
 816,  831,  832,  884,  883
 817,  833,  834,  886,  885
 818,  834,  835,  887,  886
 819,  835,  836,  888,  887
 820,  836,  837,  889,  888
 821,  837,  838,  890,  889
 822,  838,  839,  891,  890
 823,  839,  840,  892,  891
 824,  840,  841,  893,  892
 825,  841,  842,  894,  893
 826,  842,  843,  895,  894
 827,  843,  844,  896,  895
 828,  844,  845,  897,  896
 829,  845,  846,  898,  897
 830,  846,  847,  899,  898
 831,  847,  848,  900,  899
 832,  848,  849,  901,  900
 833,  849,  850,  902,  901
 834,  850,  851,  903,  902
 835,  851,  852,  904,  903
 836,  852,  853,  905,  904
 837,  853,  854,  906,  905
 838,  854,  855,  907,  906
 839,  855,  856,  908,  907
 840,  856,  857,  909,  908
 841,  857,  858,  910,  909
 842,  858,  859,  911,  910
 843,  859,  860,  912,  911
 844,  860,  861,  913,  912
 845,  861,  862,  914,  913
 846,  862,  863,  915,  914
 847,  863,  864,  916,  915
 848,  864,  865,  917,  916
 849,  865,  866,  918,  917
 850,  866,  867,  919,  918
 851,  867,  868,  920,  919
 852,  868,  869,  921,  920
 853,  869,  870,  922,  921
 854,  870,  871,  923,  922
 855,  871,  872,  924,  923
 856,  872,  873,  925,  924
 857,  873,  874,  926,  925
 858,  874,  875,  927,  926
 859,  875,  876,  928,  927
 860,  876,  877,  929,  928
 861,  877,  878,  930,  929
 862,  878,  879,  931,  930
 863,  879,  880,  932,  931
 864,  880,  881,  933,  932
 865,  881,  882,  934,  933
 866,  882,  883,  935,  934
 867,  883,  884,  936,  935
 868,  885,  886,  938,  937
 869,  886,  887,  939,  938
 870,  887,  888,  940,  939
 871,  888,  889,  941,  940
 872,  889,  890,  942,  941
 873,  890,  891,  943,  942
 874,  891,  892,  944,  943
 875,  892,  893,  945,  944
 876,  893,  894,  946,  945
 877,  894,  895,  947,  946
 878,  895,  896,  948,  947
 879,  896,  897,  949,  948
 880,  897,  898,  950,  949
 881,  898,  899,  951,  950
 882,  899,  900,  952,  951
 883,  900,  901,  953,  952
 884,  901,  902,  954,  953
 885,  902,  903,  955,  954
 886,  903,  904,  956,  955
 887,  904,  905,  957,  956
 888,  905,  906,  958,  957
 889,  906,  907,  959,  958
 890,  907,  908,  960,  959
 891,  908,  909,  961,  960
 892,  909,  910,  962,  961
 893,  910,  911,  963,  962
 894,  911,  912,  964,  963
 895,  912,  913,  965,  964
 896,  913,  914,  966,  965
 897,  914,  915,  967,  966
 898,  915,  916,  968,  967
 899,  916,  917,  969,  968
 900,  917,  918,  970,  969
 901,  918,  919,  971,  970
 902,  919,  920,  972,  971
 903,  920,  921,  973,  972
 904,  921,  922,  974,  973
 905,  922,  923,  975,  974
 906,  923,  924,  976,  975
 907,  924,  925,  977,  976
 908,  925,  926,  978,  977
 909,  926,  927,  979,  978
 910,  927,  928,  980,  979
 911,  928,  929,  981,  980
 912,  929,  930,  982,  981
 913,  930,  931,  983,  982
 914,  931,  932,  984,  983
 915,  932,  933,  985,  984
 916,  933,  934,  986,  985
 917,  934,  935,  987,  986
 918,  935,  936,  988,  987
 919,  937,  938,  990,  989
 920,  938,  939,  991,  990
 921,  939,  940,  992,  991
 922,  940,  941,  993,  992
 923,  941,  942,  994,  993
 924,  942,  943,  995,  994
 925,  943,  944,  996,  995
 926,  944,  945,  997,  996
 927,  945,  946,  998,  997
 928,  946,  947,  999,  998
 929,  947,  948, 1000,  999
 930,  948,  949, 1001, 1000
 931,  949,  950, 1002, 1001
 932,  950,  951, 1003, 1002
 933,  951,  952, 1004, 1003
 934,  952,  953, 1005, 1004
 935,  953,  954, 1006, 1005
 936,  954,  955, 1007, 1006
 937,  955,  956, 1008, 1007
 938,  956,  957, 1009, 1008
 939,  957,  958, 1010, 1009
 940,  958,  959, 1011, 1010
 941,  959,  960, 1012, 1011
 942,  960,  961, 1013, 1012
 943,  961,  962, 1014, 1013
 944,  962,  963, 1015, 1014
 945,  963,  964, 1016, 1015
 946,  964,  965, 1017, 1016
 947,  965,  966, 1018, 1017
 948,  966,  967, 1019, 1018
 949,  967,  968, 1020, 1019
 950,  968,  969, 1021, 1020
 951,  969,  970, 1022, 1021
 952,  970,  971, 1023, 1022
 953,  971,  972, 1024, 1023
 954,  972,  973, 1025, 1024
 955,  973,  974, 1026, 1025
 956,  974,  975, 1027, 1026
 957,  975,  976, 1028, 1027
 958,  976,  977, 1029, 1028
 959,  977,  978, 1030, 1029
 960,  978,  979, 1031, 1030
 961,  979,  980, 1032, 1031
 962,  980,  981, 1033, 1032
 963,  981,  982, 1034, 1033
 964,  982,  983, 1035, 1034
 965,  983,  984, 1036, 1035
 966,  984,  985, 1037, 1036
 967,  985,  986, 1038, 1037
 968,  986,  987, 1039, 1038
 969,  987,  988, 1040, 1039
 970,  989,  990, 1042, 1041
 971,  990,  991, 1043, 1042
 972,  991,  992, 1044, 1043
 973,  992,  993, 1045, 1044
 974,  993,  994, 1046, 1045
 975,  994,  995, 1047, 1046
 976,  995,  996, 1048, 1047
 977,  996,  997, 1049, 1048
 978,  997,  998, 1050, 1049
 979,  998,  999, 1051, 1050
 980,  999, 1000, 1052, 1051
 981, 1000, 1001, 1053, 1052
 982, 1001, 1002, 1054, 1053
 983, 1002, 1003, 1055, 1054
 984, 1003, 1004, 1056, 1055
 985, 1004, 1005, 1057, 1056
 986, 1005, 1006, 1058, 1057
 987, 1006, 1007, 1059, 1058
 988, 1007, 1008, 1060, 1059
 989, 1008, 1009, 1061, 1060
 990, 1009, 1010, 1062, 1061
 991, 1010, 1011, 1063, 1062
 992, 1011, 1012, 1064, 1063
 993, 1012, 1013, 1065, 1064
 994, 1013, 1014, 1066, 1065
 995, 1014, 1015, 1067, 1066
 996, 1015, 1016, 1068, 1067
 997, 1016, 1017, 1069, 1068
 998, 1017, 1018, 1070, 1069
 999, 1018, 1019, 1071, 1070
1000, 1019, 1020, 1072, 1071
1001, 1020, 1021, 1073, 1072
1002, 1021, 1022, 1074, 1073
1003, 1022, 1023, 1075, 1074
1004, 1023, 1024, 1076, 1075
1005, 1024, 1025, 1077, 1076
1006, 1025, 1026, 1078, 1077
1007, 1026, 1027, 1079, 1078
1008, 1027, 1028, 1080, 1079
1009, 1028, 1029, 1081, 1080
1010, 1029, 1030, 1082, 1081
1011, 1030, 1031, 1083, 1082
1012, 1031, 1032, 1084, 1083
1013, 1032, 1033, 1085, 1084
1014, 1033, 1034, 1086, 1085
1015, 1034, 1035, 1087, 1086
1016, 1035, 1036, 1088, 1087
1017, 1036, 1037, 1089, 1088
1018, 1037, 1038, 1090, 1089
1019, 1038, 1039, 1091, 1090
1020, 1039, 1040, 1092, 1091
1021, 1041, 1042, 1094, 1093
1022, 1042, 1043, 1095, 1094
1023, 1043, 1044, 1096, 1095
1024, 1044, 1045, 1097, 1096
1025, 1045, 1046, 1098, 1097
1026, 1046, 1047, 1099, 1098
1027, 1047, 1048, 1100, 1099
1028, 1048, 1049, 1101, 1100
1029, 1049, 1050, 1102, 1101
1030, 1050, 1051, 1103, 1102
1031, 1051, 1052, 1104, 1103
1032, 1052, 1053, 1105, 1104
1033, 1053, 1054, 1106, 1105
1034, 1054, 1055, 1107, 1106
1035, 1055, 1056, 1108, 1107
1036, 1056, 1057, 1109, 1108
1037, 1057, 1058, 1110, 1109
1038, 1058, 1059, 1111, 1110
1039, 1059, 1060, 1112, 1111
1040, 1060, 1061, 1113, 1112
1041, 1061, 1062, 1114, 1113
1042, 1062, 1063, 1115, 1114
1043, 1063, 1064, 1116, 1115
1044, 1064, 1065, 1117, 1116
1045, 1065, 1066, 1118, 1117
1046, 1066, 1067, 1119, 1118
1047, 1067, 1068, 1120, 1119
1048, 1068, 1069, 1121, 1120
1049, 1069, 1070, 1122, 1121
1050, 1070, 1071, 1123, 1122
1051, 1071, 1072, 1124, 1123
1052, 1072, 1073, 1125, 1124
1053, 1073, 1074, 1126, 1125
1054, 1074, 1075, 1127, 1126
1055, 1075, 1076, 1128, 1127
1056, 1076, 1077, 1129, 1128
1057, 1077, 1078, 1130, 1129
1058, 1078, 1079, 1131, 1130
1059, 1079, 1080, 1132, 1131
1060, 1080, 1081, 1133, 1132
1061, 1081, 1082, 1134, 1133
1062, 1082, 1083, 1135, 1134
1063, 1083, 1084, 1136, 1135
1064, 1084, 1085, 1137, 1136
1065, 1085, 1086, 1138, 1137
1066, 1086, 1087, 1139, 1138
1067, 1087, 1088, 1140, 1139
1068, 1088, 1089, 1141, 1140
1069, 1089, 1090, 1142, 1141
1070, 1090, 1091, 1143, 1142
1071, 1091, 1092, 1144, 1143
1072, 1093, 1094, 1146, 1145
1073, 1094, 1095, 1147, 1146
1074, 1095, 1096, 1148, 1147
1075, 1096, 1097, 1149, 1148
1076, 1097, 1098, 1150, 1149
1077, 1098, 1099, 1151, 1150
1078, 1099, 1100, 1152, 1151
1079, 1100, 1101, 1153, 1152
1080, 1101, 1102, 1154, 1153
1081, 1102, 1103, 1155, 1154
1082, 1103, 1104, 1156, 1155
1083, 1104, 1105, 1157, 1156
1084, 1105, 1106, 1158, 1157
1085, 1106, 1107, 1159, 1158
1086, 1107, 1108, 1160, 1159
1087, 1108, 1109, 1161, 1160
1088, 1109, 1110, 1162, 1161
1089, 1110, 1111, 1163, 1162
1090, 1111, 1112, 1164, 1163
1091, 1112, 1113, 1165, 1164
1092, 1113, 1114, 1166, 1165
1093, 1114, 1115, 1167, 1166
1094, 1115, 1116, 1168, 1167
1095, 1116, 1117, 1169, 1168
1096, 1117, 1118, 1170, 1169
1097, 1118, 1119, 1171, 1170
1098, 1119, 1120, 1172, 1171
1099, 1120, 1121, 1173, 1172
1100, 1121, 1122, 1174, 1173
1101, 1122, 1123, 1175, 1174
1102, 1123, 1124, 1176, 1175
1103, 1124, 1125, 1177, 1176
1104, 1125, 1126, 1178, 1177
1105, 1126, 1127, 1179, 1178
1106, 1127, 1128, 1180, 1179
1107, 1128, 1129, 1181, 1180
1108, 1129, 1130, 1182, 1181
1109, 1130, 1131, 1183, 1182
1110, 1131, 1132, 1184, 1183
1111, 1132, 1133, 1185, 1184
1112, 1133, 1134, 1186, 1185
1113, 1134, 1135, 1187, 1186
1114, 1135, 1136, 1188, 1187
1115, 1136, 1137, 1189, 1188
1116, 1137, 1138, 1190, 1189
1117, 1138, 1139, 1191, 1190
1118, 1139, 1140, 1192, 1191
1119, 1140, 1141, 1193, 1192
1120, 1141, 1142, 1194, 1193
1121, 1142, 1143, 1195, 1194
1122, 1143, 1144, 1196, 1195
1123, 1145, 1146, 1198, 1197
1124, 1146, 1147, 1199, 1198
1125, 1147, 1148, 1200, 1199
1126, 1148, 1149, 1201, 1200
1127, 1149, 1150, 1202, 1201
1128, 1150, 1151, 1203, 1202
1129, 1151, 1152, 1204, 1203
1130, 1152, 1153, 1205, 1204
1131, 1153, 1154, 1206, 1205
1132, 1154, 1155, 1207, 1206
1133, 1155, 1156, 1208, 1207
1134, 1156, 1157, 1209, 1208
1135, 1157, 1158, 1210, 1209
1136, 1158, 1159, 1211, 1210
1137, 1159, 1160, 1212, 1211
1138, 1160, 1161, 1213, 1212
1139, 1161, 1162, 1214, 1213
1140, 1162, 1163, 1215, 1214
1141, 1163, 1164, 1216, 1215
1142, 1164, 1165, 1217, 1216
1143, 1165, 1166, 1218, 1217
1144, 1166, 1167, 1219, 1218
1145, 1167, 1168, 1220, 1219
1146, 1168, 1169, 1221, 1220
1147, 1169, 1170, 1222, 1221
1148, 1170, 1171, 1223, 1222
1149, 1171, 1172, 1224, 1223
1150, 1172, 1173, 1225, 1224
1151, 1173, 1174, 1226, 1225
1152, 1174, 1175, 1227, 1226
1153, 1175, 1176, 1228, 1227
1154, 1176, 1177, 1229, 1228
1155, 1177, 1178, 1230, 1229
1156, 1178, 1179, 1231, 1230
1157, 1179, 1180, 1232, 1231
1158, 1180, 1181, 1233, 1232
1159, 1181, 1182, 1234, 1233
1160, 1182, 1183, 1235, 1234
1161, 1183, 1184, 1236, 1235
1162, 1184, 1185, 1237, 1236
1163, 1185, 1186, 1238, 1237
1164, 1186, 1187, 1239, 1238
1165, 1187, 1188, 1240, 1239
1166, 1188, 1189, 1241, 1240
1167, 1189, 1190, 1242, 1241
1168, 1190, 1191, 1243, 1242
1169, 1191, 1192, 1244, 1243
1170, 1192, 1193, 1245, 1244
1171, 1193, 1194, 1246, 1245
1172, 1194, 1195, 1247, 1246
1173, 1195, 1196, 1248, 1247
1174, 1197, 1198, 1250, 1249
1175, 1198, 1199, 1251, 1250
1176, 1199, 1200, 1252, 1251
1177, 1200, 1201, 1253, 1252
1178, 1201, 1202, 1254, 1253
1179, 1202, 1203, 1255, 1254
1180, 1203, 1204, 1256, 1255
1181, 1204, 1205, 1257, 1256
1182, 1205, 1206, 1258, 1257
1183, 1206, 1207, 1259, 1258
1184, 1207, 1208, 1260, 1259
1185, 1208, 1209, 1261, 1260
1186, 1209, 1210, 1262, 1261
1187, 1210, 1211, 1263, 1262
1188, 1211, 1212, 1264, 1263
1189, 1212, 1213, 1265, 1264
1190, 1213, 1214, 1266, 1265
1191, 1214, 1215, 1267, 1266
1192, 1215, 1216, 1268, 1267
1193, 1216, 1217, 1269, 1268
1194, 1217, 1218, 1270, 1269
1195, 1218, 1219, 1271, 1270
1196, 1219, 1220, 1272, 1271
1197, 1220, 1221, 1273, 1272
1198, 1221, 1222, 1274, 1273
1199, 1222, 1223, 1275, 1274
1200, 1223, 1224, 1276, 1275
1201, 1224, 1225, 1277, 1276
1202, 1225, 1226, 1278, 1277
1203, 1226, 1227, 1279, 1278
1204, 1227, 1228, 1280, 1279
1205, 1228, 1229, 1281, 1280
1206, 1229, 1230, 1282, 1281
1207, 1230, 1231, 1283, 1282
1208, 1231, 1232, 1284, 1283
1209, 1232, 1233, 1285, 1284
1210, 1233, 1234, 1286, 1285
1211, 1234, 1235, 1287, 1286
1212, 1235, 1236, 1288, 1287
1213, 1236, 1237, 1289, 1288
1214, 1237, 1238, 1290, 1289
1215, 1238, 1239, 1291, 1290
1216, 1239, 1240, 1292, 1291
1217, 1240, 1241, 1293, 1292
1218, 1241, 1242, 1294, 1293
1219, 1242, 1243, 1295, 1294
1220, 1243, 1244, 1296, 1295
1221, 1244, 1245, 1297, 1296
1222, 1245, 1246, 1298, 1297
1223, 1246, 1247, 1299, 1298
1224, 1247, 1248, 1300, 1299
1225, 1249, 1250, 1302, 1301
1226, 1250, 1251, 1303, 1302
1227, 1251, 1252, 1304, 1303
1228, 1252, 1253, 1305, 1304
1229, 1253, 1254, 1306, 1305
1230, 1254, 1255, 1307, 1306
1231, 1255, 1256, 1308, 1307
1232, 1256, 1257, 1309, 1308
1233, 1257, 1258, 1310, 1309
1234, 1258, 1259, 1311, 1310
1235, 1259, 1260, 1312, 1311
1236, 1260, 1261, 1313, 1312
1237, 1261, 1262, 1314, 1313
1238, 1262, 1263, 1315, 1314
1239, 1263, 1264, 1316, 1315
1240, 1264, 1265, 1317, 1316
1241, 1265, 1266, 1318, 1317
1242, 1266, 1267, 1319, 1318
1243, 1267, 1268, 1320, 1319
1244, 1268, 1269, 1321, 1320
1245, 1269, 1270, 1322, 1321
1246, 1270, 1271, 1323, 1322
1247, 1271, 1272, 1324, 1323
1248, 1272, 1273, 1325, 1324
1249, 1273, 1274, 1326, 1325
1250, 1274, 1275, 1327, 1326
1251, 1275, 1276, 1328, 1327
1252, 1276, 1277, 1329, 1328
1253, 1277, 1278, 1330, 1329
1254, 1278, 1279, 1331, 1330
1255, 1279, 1280, 1332, 1331
1256, 1280, 1281, 1333, 1332
1257, 1281, 1282, 1334, 1333
1258, 1282, 1283, 1335, 1334
1259, 1283, 1284, 1336, 1335
1260, 1284, 1285, 1337, 1336
1261, 1285, 1286, 1338, 1337
1262, 1286, 1287, 1339, 1338
1263, 1287, 1288, 1340, 1339
1264, 1288, 1289, 1341, 1340
1265, 1289, 1290, 1342, 1341
1266, 1290, 1291, 1343, 1342
1267, 1291, 1292, 1344, 1343
1268, 1292, 1293, 1345, 1344
1269, 1293, 1294, 1346, 1345
1270, 1294, 1295, 1347, 1346
1271, 1295, 1296, 1348, 1347
1272, 1296, 1297, 1349, 1348
1273, 1297, 1298, 1350, 1349
1274, 1298, 1299, 1351, 1350
1275, 1299, 1300, 1352, 1351
1276, 1301, 1302, 1354, 1353
1277, 1302, 1303, 1355, 1354
1278, 1303, 1304, 1356, 1355
1279, 1304, 1305, 1357, 1356
1280, 1305, 1306, 1358, 1357
1281, 1306, 1307, 1359, 1358
1282, 1307, 1308, 1360, 1359
1283, 1308, 1309, 1361, 1360
1284, 1309, 1310, 1362, 1361
1285, 1310, 1311, 1363, 1362
1286, 1311, 1312, 1364, 1363
1287, 1312, 1313, 1365, 1364
1288, 1313, 1314, 1366, 1365
1289, 1314, 1315, 1367, 1366
1290, 1315, 1316, 1368, 1367
1291, 1316, 1317, 1369, 1368
1292, 1317, 1318, 1370, 1369
1293, 1318, 1319, 1371, 1370
1294, 1319, 1320, 1372, 1371
1295, 1320, 1321, 1373, 1372
1296, 1321, 1322, 1374, 1373
1297, 1322, 1323, 1375, 1374
1298, 1323, 1324, 1376, 1375
1299, 1324, 1325, 1377, 1376
1300, 1325, 1326, 1378, 1377
1301, 1326, 1327, 1379, 1378
1302, 1327, 1328, 1380, 1379
1303, 1328, 1329, 1381, 1380
1304, 1329, 1330, 1382, 1381
1305, 1330, 1331, 1383, 1382
1306, 1331, 1332, 1384, 1383
1307, 1332, 1333, 1385, 1384
1308, 1333, 1334, 1386, 1385
1309, 1334, 1335, 1387, 1386
1310, 1335, 1336, 1388, 1387
1311, 1336, 1337, 1389, 1388
1312, 1337, 1338, 1390, 1389
1313, 1338, 1339, 1391, 1390
1314, 1339, 1340, 1392, 1391
1315, 1340, 1341, 1393, 1392
1316, 1341, 1342, 1394, 1393
1317, 1342, 1343, 1395, 1394
1318, 1343, 1344, 1396, 1395
1319, 1344, 1345, 1397, 1396
1320, 1345, 1346, 1398, 1397
1321, 1346, 1347, 1399, 1398
1322, 1347, 1348, 1400, 1399
1323, 1348, 1349, 1401, 1400
1324, 1349, 1350, 1402, 1401
1325, 1350, 1351, 1403, 1402
1326, 1351, 1352, 1404, 1403
1327, 1353, 1354, 1406, 1405
1328, 1354, 1355, 1407, 1406
1329, 1355, 1356, 1408, 1407
1330, 1356, 1357, 1409, 1408
1331, 1357, 1358, 1410, 1409
1332, 1358, 1359, 1411, 1410
1333, 1359, 1360, 1412, 1411
1334, 1360, 1361, 1413, 1412
1335, 1361, 1362, 1414, 1413
1336, 1362, 1363, 1415, 1414
1337, 1363, 1364, 1416, 1415
1338, 1364, 1365, 1417, 1416
1339, 1365, 1366, 1418, 1417
1340, 1366, 1367, 1419, 1418
1341, 1367, 1368, 1420, 1419
1342, 1368, 1369, 1421, 1420
1343, 1369, 1370, 1422, 1421
1344, 1370, 1371, 1423, 1422
1345, 1371, 1372, 1424, 1423
1346, 1372, 1373, 1425, 1424
1347, 1373, 1374, 1426, 1425
1348, 1374, 1375, 1427, 1426
1349, 1375, 1376, 1428, 1427
1350, 1376, 1377, 1429, 1428
1351, 1377, 1378, 1430, 1429
1352, 1378, 1379, 1431, 1430
1353, 1379, 1380, 1432, 1431
1354, 1380, 1381, 1433, 1432
1355, 1381, 1382, 1434, 1433
1356, 1382, 1383, 1435, 1434
1357, 1383, 1384, 1436, 1435
1358, 1384, 1385, 1437, 1436
1359, 1385, 1386, 1438, 1437
1360, 1386, 1387, 1439, 1438
1361, 1387, 1388, 1440, 1439
1362, 1388, 1389, 1441, 1440
1363, 1389, 1390, 1442, 1441
1364, 1390, 1391, 1443, 1442
1365, 1391, 1392, 1444, 1443
1366, 1392, 1393, 1445, 1444
1367, 1393, 1394, 1446, 1445
1368, 1394, 1395, 1447, 1446
1369, 1395, 1396, 1448, 1447
1370, 1396, 1397, 1449, 1448
1371, 1397, 1398, 1450, 1449
1372, 1398, 1399, 1451, 1450
1373, 1399, 1400, 1452, 1451
1374, 1400, 1401, 1453, 1452
1375, 1401, 1402, 1454, 1453
1376, 1402, 1403, 1455, 1454
1377, 1403, 1404, 1456, 1455
1378, 1405, 1406, 1458, 1457
1379, 1406, 1407, 1459, 1458
1380, 1407, 1408, 1460, 1459
1381, 1408, 1409, 1461, 1460
1382, 1409, 1410, 1462, 1461
1383, 1410, 1411, 1463, 1462
1384, 1411, 1412, 1464, 1463
1385, 1412, 1413, 1465, 1464
1386, 1413, 1414, 1466, 1465
1387, 1414, 1415, 1467, 1466
1388, 1415, 1416, 1468, 1467
1389, 1416, 1417, 1469, 1468
1390, 1417, 1418, 1470, 1469
1391, 1418, 1419, 1471, 1470
1392, 1419, 1420, 1472, 1471
1393, 1420, 1421, 1473, 1472
1394, 1421, 1422, 1474, 1473
1395, 1422, 1423, 1475, 1474
1396, 1423, 1424, 1476, 1475
1397, 1424, 1425, 1477, 1476
1398, 1425, 1426, 1478, 1477
1399, 1426, 1427, 1479, 1478
1400, 1427, 1428, 1480, 1479
1401, 1428, 1429, 1481, 1480
1402, 1429, 1430, 1482, 1481
1403, 1430, 1431, 1483, 1482
1404, 1431, 1432, 1484, 1483
1405, 1432, 1433, 1485, 1484
1406, 1433, 1434, 1486, 1485
1407, 1434, 1435, 1487, 1486
1408, 1435, 1436, 1488, 1487
1409, 1436, 1437, 1489, 1488
1410, 1437, 1438, 1490, 1489
1411, 1438, 1439, 1491, 1490
1412, 1439, 1440, 1492, 1491
1413, 1440, 1441, 1493, 1492
1414, 1441, 1442, 1494, 1493
1415, 1442, 1443, 1495, 1494
1416, 1443, 1444, 1496, 1495
1417, 1444, 1445, 1497, 1496
1418, 1445, 1446, 1498, 1497
1419, 1446, 1447, 1499, 1498
1420, 1447, 1448, 1500, 1499
1421, 1448, 1449, 1501, 1500
1422, 1449, 1450, 1502, 1501
1423, 1450, 1451, 1503, 1502
1424, 1451, 1452, 1504, 1503
1425, 1452, 1453, 1505, 1504
1426, 1453, 1454, 1506, 1505
1427, 1454, 1455, 1507, 1506
1428, 1455, 1456, 1508, 1507
1429, 1457, 1458, 1510, 1509
1430, 1458, 1459, 1511, 1510
1431, 1459, 1460, 1512, 1511
1432, 1460, 1461, 1513, 1512
1433, 1461, 1462, 1514, 1513
1434, 1462, 1463, 1515, 1514
1435, 1463, 1464, 1516, 1515
1436, 1464, 1465, 1517, 1516
1437, 1465, 1466, 1518, 1517
1438, 1466, 1467, 1519, 1518
1439, 1467, 1468, 1520, 1519
1440, 1468, 1469, 1521, 1520
1441, 1469, 1470, 1522, 1521
1442, 1470, 1471, 1523, 1522
1443, 1471, 1472, 1524, 1523
1444, 1472, 1473, 1525, 1524
1445, 1473, 1474, 1526, 1525
1446, 1474, 1475, 1527, 1526
1447, 1475, 1476, 1528, 1527
1448, 1476, 1477, 1529, 1528
1449, 1477, 1478, 1530, 1529
1450, 1478, 1479, 1531, 1530
1451, 1479, 1480, 1532, 1531
1452, 1480, 1481, 1533, 1532
1453, 1481, 1482, 1534, 1533
1454, 1482, 1483, 1535, 1534
1455, 1483, 1484, 1536, 1535
1456, 1484, 1485, 1537, 1536
1457, 1485, 1486, 1538, 1537
1458, 1486, 1487, 1539, 1538
1459, 1487, 1488, 1540, 1539
1460, 1488, 1489, 1541, 1540
1461, 1489, 1490, 1542, 1541
1462, 1490, 1491, 1543, 1542
1463, 1491, 1492, 1544, 1543
1464, 1492, 1493, 1545, 1544
1465, 1493, 1494, 1546, 1545
1466, 1494, 1495, 1547, 1546
1467, 1495, 1496, 1548, 1547
1468, 1496, 1497, 1549, 1548
1469, 1497, 1498, 1550, 1549
1470, 1498, 1499, 1551, 1550
1471, 1499, 1500, 1552, 1551
1472, 1500, 1501, 1553, 1552
1473, 1501, 1502, 1554, 1553
1474, 1502, 1503, 1555, 1554
1475, 1503, 1504, 1556, 1555
1476, 1504, 1505, 1557, 1556
1477, 1505, 1506, 1558, 1557
1478, 1506, 1507, 1559, 1558
1479, 1507, 1508, 1560, 1559
1480, 1509, 1510, 1562, 1561
1481, 1510, 1511, 1563, 1562
1482, 1511, 1512, 1564, 1563
1483, 1512, 1513, 1565, 1564
1484, 1513, 1514, 1566, 1565
1485, 1514, 1515, 1567, 1566
1486, 1515, 1516, 1568, 1567
1487, 1516, 1517, 1569, 1568
1488, 1517, 1518, 1570, 1569
1489, 1518, 1519, 1571, 1570
1490, 1519, 1520, 1572, 1571
1491, 1520, 1521, 1573, 1572
1492, 1521, 1522, 1574, 1573
1493, 1522, 1523, 1575, 1574
1494, 1523, 1524, 1576, 1575
1495, 1524, 1525, 1577, 1576
1496, 1525, 1526, 1578, 1577
1497, 1526, 1527, 1579, 1578
1498, 1527, 1528, 1580, 1579
1499, 1528, 1529, 1581, 1580
1500, 1529, 1530, 1582, 1581
1501, 1530, 1531, 1583, 1582
1502, 1531, 1532, 1584, 1583
1503, 1532, 1533, 1585, 1584
1504, 1533, 1534, 1586, 1585
1505, 1534, 1535, 1587, 1586
1506, 1535, 1536, 1588, 1587
1507, 1536, 1537, 1589, 1588
1508, 1537, 1538, 1590, 1589
1509, 1538, 1539, 1591, 1590
1510, 1539, 1540, 1592, 1591
1511, 1540, 1541, 1593, 1592
1512, 1541, 1542, 1594, 1593
1513, 1542, 1543, 1595, 1594
1514, 1543, 1544, 1596, 1595
1515, 1544, 1545, 1597, 1596
1516, 1545, 1546, 1598, 1597
1517, 1546, 1547, 1599, 1598
1518, 1547, 1548, 1600, 1599
1519, 1548, 1549, 1601, 1600
1520, 1549, 1550, 1602, 1601
1521, 1550, 1551, 1603, 1602
1522, 1551, 1552, 1604, 1603
1523, 1552, 1553, 1605, 1604
1524, 1553, 1554, 1606, 1605
1525, 1554, 1555, 1607, 1606
1526, 1555, 1556, 1608, 1607
1527, 1556, 1557, 1609, 1608
1528, 1557, 1558, 1610, 1609
1529, 1558, 1559, 1611, 1610
1530, 1559, 1560, 1612, 1611
1531, 1561, 1562, 1614, 1613
1532, 1562, 1563, 1615, 1614
1533, 1563, 1564, 1616, 1615
1534, 1564, 1565, 1617, 1616
1535, 1565, 1566, 1618, 1617
1536, 1566, 1567, 1619, 1618
1537, 1567, 1568, 1620, 1619
1538, 1568, 1569, 1621, 1620
1539, 1569, 1570, 1622, 1621
1540, 1570, 1571, 1623, 1622
1541, 1571, 1572, 1624, 1623
1542, 1572, 1573, 1625, 1624
1543, 1573, 1574, 1626, 1625
1544, 1574, 1575, 1627, 1626
1545, 1575, 1576, 1628, 1627
1546, 1576, 1577, 1629, 1628
1547, 1577, 1578, 1630, 1629
1548, 1578, 1579, 1631, 1630
1549, 1579, 1580, 1632, 1631
1550, 1580, 1581, 1633, 1632
1551, 1581, 1582, 1634, 1633
1552, 1582, 1583, 1635, 1634
1553, 1583, 1584, 1636, 1635
1554, 1584, 1585, 1637, 1636
1555, 1585, 1586, 1638, 1637
1556, 1586, 1587, 1639, 1638
1557, 1587, 1588, 1640, 1639
1558, 1588, 1589, 1641, 1640
1559, 1589, 1590, 1642, 1641
1560, 1590, 1591, 1643, 1642
1561, 1591, 1592, 1644, 1643
1562, 1592, 1593, 1645, 1644
1563, 1593, 1594, 1646, 1645
1564, 1594, 1595, 1647, 1646
1565, 1595, 1596, 1648, 1647
1566, 1596, 1597, 1649, 1648
1567, 1597, 1598, 1650, 1649
1568, 1598, 1599, 1651, 1650
1569, 1599, 1600, 1652, 1651
1570, 1600, 1601, 1653, 1652
1571, 1601, 1602, 1654, 1653
1572, 1602, 1603, 1655, 1654
1573, 1603, 1604, 1656, 1655
1574, 1604, 1605, 1657, 1656
1575, 1605, 1606, 1658, 1657
1576, 1606, 1607, 1659, 1658
1577, 1607, 1608, 1660, 1659
1578, 1608, 1609, 1661, 1660
1579, 1609, 1610, 1662, 1661
1580, 1610, 1611, 1663, 1662
1581, 1611, 1612, 1664, 1663
1582, 1613, 1614, 1666, 1665
1583, 1614, 1615, 1667, 1666
1584, 1615, 1616, 1668, 1667
1585, 1616, 1617, 1669, 1668
1586, 1617, 1618, 1670, 1669
1587, 1618, 1619, 1671, 1670
1588, 1619, 1620, 1672, 1671
1589, 1620, 1621, 1673, 1672
1590, 1621, 1622, 1674, 1673
1591, 1622, 1623, 1675, 1674
1592, 1623, 1624, 1676, 1675
1593, 1624, 1625, 1677, 1676
1594, 1625, 1626, 1678, 1677
1595, 1626, 1627, 1679, 1678
1596, 1627, 1628, 1680, 1679
1597, 1628, 1629, 1681, 1680
1598, 1629, 1630, 1682, 1681
1599, 1630, 1631, 1683, 1682
1600, 1631, 1632, 1684, 1683
1601, 1632, 1633, 1685, 1684
1602, 1633, 1634, 1686, 1685
1603, 1634, 1635, 1687, 1686
1604, 1635, 1636, 1688, 1687
1605, 1636, 1637, 1689, 1688
1606, 1637, 1638, 1690, 1689
1607, 1638, 1639, 1691, 1690
1608, 1639, 1640, 1692, 1691
1609, 1640, 1641, 1693, 1692
1610, 1641, 1642, 1694, 1693
1611, 1642, 1643, 1695, 1694
1612, 1643, 1644, 1696, 1695
1613, 1644, 1645, 1697, 1696
1614, 1645, 1646, 1698, 1697
1615, 1646, 1647, 1699, 1698
1616, 1647, 1648, 1700, 1699
1617, 1648, 1649, 1701, 1700
1618, 1649, 1650, 1702, 1701
1619, 1650, 1651, 1703, 1702
1620, 1651, 1652, 1704, 1703
1621, 1652, 1653, 1705, 1704
1622, 1653, 1654, 1706, 1705
1623, 1654, 1655, 1707, 1706
1624, 1655, 1656, 1708, 1707
1625, 1656, 1657, 1709, 1708
1626, 1657, 1658, 1710, 1709
1627, 1658, 1659, 1711, 1710
1628, 1659, 1660, 1712, 1711
1629, 1660, 1661, 1713, 1712
1630, 1661, 1662, 1714, 1713
1631, 1662, 1663, 1715, 1714
1632, 1663, 1664, 1716, 1715
1633, 1665, 1666, 1718, 1717
1634, 1666, 1667, 1719, 1718
1635, 1667, 1668, 1720, 1719
1636, 1668, 1669, 1721, 1720
1637, 1669, 1670, 1722, 1721
1638, 1670, 1671, 1723, 1722
1639, 1671, 1672, 1724, 1723
1640, 1672, 1673, 1725, 1724
1641, 1673, 1674, 1726, 1725
1642, 1674, 1675, 1727, 1726
1643, 1675, 1676, 1728, 1727
1644, 1676, 1677, 1729, 1728
1645, 1677, 1678, 1730, 1729
1646, 1678, 1679, 1731, 1730
1647, 1679, 1680, 1732, 1731
1648, 1680, 1681, 1733, 1732
1649, 1681, 1682, 1734, 1733
1650, 1682, 1683, 1735, 1734
1651, 1683, 1684, 1736, 1735
1652, 1684, 1685, 1737, 1736
1653, 1685, 1686, 1738, 1737
1654, 1686, 1687, 1739, 1738
1655, 1687, 1688, 1740, 1739
1656, 1688, 1689, 1741, 1740
1657, 1689, 1690, 1742, 1741
1658, 1690, 1691, 1743, 1742
1659, 1691, 1692, 1744, 1743
1660, 1692, 1693, 1745, 1744
1661, 1693, 1694, 1746, 1745
1662, 1694, 1695, 1747, 1746
1663, 1695, 1696, 1748, 1747
1664, 1696, 1697, 1749, 1748
1665, 1697, 1698, 1750, 1749
1666, 1698, 1699, 1751, 1750
1667, 1699, 1700, 1752, 1751
1668, 1700, 1701, 1753, 1752
1669, 1701, 1702, 1754, 1753
1670, 1702, 1703, 1755, 1754
1671, 1703, 1704, 1756, 1755
1672, 1704, 1705, 1757, 1756
1673, 1705, 1706, 1758, 1757
1674, 1706, 1707, 1759, 1758
1675, 1707, 1708, 1760, 1759
1676, 1708, 1709, 1761, 1760
1677, 1709, 1710, 1762, 1761
1678, 1710, 1711, 1763, 1762
1679, 1711, 1712, 1764, 1763
1680, 1712, 1713, 1765, 1764
1681, 1713, 1714, 1766, 1765
1682, 1714, 1715, 1767, 1766
1683, 1715, 1716, 1768, 1767
1684, 1717, 1718, 1770, 1769
1685, 1718, 1719, 1771, 1770
1686, 1719, 1720, 1772, 1771
1687, 1720, 1721, 1773, 1772
1688, 1721, 1722, 1774, 1773
1689, 1722, 1723, 1775, 1774
1690, 1723, 1724, 1776, 1775
1691, 1724, 1725, 1777, 1776
1692, 1725, 1726, 1778, 1777
1693, 1726, 1727, 1779, 1778
1694, 1727, 1728, 1780, 1779
1695, 1728, 1729, 1781, 1780
1696, 1729, 1730, 1782, 1781
1697, 1730, 1731, 1783, 1782
1698, 1731, 1732, 1784, 1783
1699, 1732, 1733, 1785, 1784
1700, 1733, 1734, 1786, 1785
1701, 1734, 1735, 1787, 1786
1702, 1735, 1736, 1788, 1787
1703, 1736, 1737, 1789, 1788
1704, 1737, 1738, 1790, 1789
1705, 1738, 1739, 1791, 1790
1706, 1739, 1740, 1792, 1791
1707, 1740, 1741, 1793, 1792
1708, 1741, 1742, 1794, 1793
1709, 1742, 1743, 1795, 1794
1710, 1743, 1744, 1796, 1795
1711, 1744, 1745, 1797, 1796
1712, 1745, 1746, 1798, 1797
1713, 1746, 1747, 1799, 1798
1714, 1747, 1748, 1800, 1799
1715, 1748, 1749, 1801, 1800
1716, 1749, 1750, 1802, 1801
1717, 1750, 1751, 1803, 1802
1718, 1751, 1752, 1804, 1803
1719, 1752, 1753, 1805, 1804
1720, 1753, 1754, 1806, 1805
1721, 1754, 1755, 1807, 1806
1722, 1755, 1756, 1808, 1807
1723, 1756, 1757, 1809, 1808
1724, 1757, 1758, 1810, 1809
1725, 1758, 1759, 1811, 1810
1726, 1759, 1760, 1812, 1811
1727, 1760, 1761, 1813, 1812
1728, 1761, 1762, 1814, 1813
1729, 1762, 1763, 1815, 1814
1730, 1763, 1764, 1816, 1815
1731, 1764, 1765, 1817, 1816
1732, 1765, 1766, 1818, 1817
1733, 1766, 1767, 1819, 1818
1734, 1767, 1768, 1820, 1819
1735, 1769, 1770, 1822, 1821
1736, 1770, 1771, 1823, 1822
1737, 1771, 1772, 1824, 1823
1738, 1772, 1773, 1825, 1824
1739, 1773, 1774, 1826, 1825
1740, 1774, 1775, 1827, 1826
1741, 1775, 1776, 1828, 1827
1742, 1776, 1777, 1829, 1828
1743, 1777, 1778, 1830, 1829
1744, 1778, 1779, 1831, 1830
1745, 1779, 1780, 1832, 1831
1746, 1780, 1781, 1833, 1832
1747, 1781, 1782, 1834, 1833
1748, 1782, 1783, 1835, 1834
1749, 1783, 1784, 1836, 1835
1750, 1784, 1785, 1837, 1836
1751, 1785, 1786, 1838, 1837
1752, 1786, 1787, 1839, 1838
1753, 1787, 1788, 1840, 1839
1754, 1788, 1789, 1841, 1840
1755, 1789, 1790, 1842, 1841
1756, 1790, 1791, 1843, 1842
1757, 1791, 1792, 1844, 1843
1758, 1792, 1793, 1845, 1844
1759, 1793, 1794, 1846, 1845
1760, 1794, 1795, 1847, 1846
1761, 1795, 1796, 1848, 1847
1762, 1796, 1797, 1849, 1848
1763, 1797, 1798, 1850, 1849
1764, 1798, 1799, 1851, 1850
1765, 1799, 1800, 1852, 1851
1766, 1800, 1801, 1853, 1852
1767, 1801, 1802, 1854, 1853
1768, 1802, 1803, 1855, 1854
1769, 1803, 1804, 1856, 1855
1770, 1804, 1805, 1857, 1856
1771, 1805, 1806, 1858, 1857
1772, 1806, 1807, 1859, 1858
1773, 1807, 1808, 1860, 1859
1774, 1808, 1809, 1861, 1860
1775, 1809, 1810, 1862, 1861
1776, 1810, 1811, 1863, 1862
1777, 1811, 1812, 1864, 1863
1778, 1812, 1813, 1865, 1864
1779, 1813, 1814, 1866, 1865
1780, 1814, 1815, 1867, 1866
1781, 1815, 1816, 1868, 1867
1782, 1816, 1817, 1869, 1868
1783, 1817, 1818, 1870, 1869
1784, 1818, 1819, 1871, 1870
1785, 1819, 1820, 1872, 1871
1786, 1821, 1822, 1874, 1873
1787, 1822, 1823, 1875, 1874
1788, 1823, 1824, 1876, 1875
1789, 1824, 1825, 1877, 1876
1790, 1825, 1826, 1878, 1877
1791, 1826, 1827, 1879, 1878
1792, 1827, 1828, 1880, 1879
1793, 1828, 1829, 1881, 1880
1794, 1829, 1830, 1882, 1881
1795, 1830, 1831, 1883, 1882
1796, 1831, 1832, 1884, 1883
1797, 1832, 1833, 1885, 1884
1798, 1833, 1834, 1886, 1885
1799, 1834, 1835, 1887, 1886
1800, 1835, 1836, 1888, 1887
1801, 1836, 1837, 1889, 1888
1802, 1837, 1838, 1890, 1889
1803, 1838, 1839, 1891, 1890
1804, 1839, 1840, 1892, 1891
1805, 1840, 1841, 1893, 1892
1806, 1841, 1842, 1894, 1893
1807, 1842, 1843, 1895, 1894
1808, 1843, 1844, 1896, 1895
1809, 1844, 1845, 1897, 1896
1810, 1845, 1846, 1898, 1897
1811, 1846, 1847, 1899, 1898
1812, 1847, 1848, 1900, 1899
1813, 1848, 1849, 1901, 1900
1814, 1849, 1850, 1902, 1901
1815, 1850, 1851, 1903, 1902
1816, 1851, 1852, 1904, 1903
1817, 1852, 1853, 1905, 1904
1818, 1853, 1854, 1906, 1905
1819, 1854, 1855, 1907, 1906
1820, 1855, 1856, 1908, 1907
1821, 1856, 1857, 1909, 1908
1822, 1857, 1858, 1910, 1909
1823, 1858, 1859, 1911, 1910
1824, 1859, 1860, 1912, 1911
1825, 1860, 1861, 1913, 1912
1826, 1861, 1862, 1914, 1913
1827, 1862, 1863, 1915, 1914
1828, 1863, 1864, 1916, 1915
1829, 1864, 1865, 1917, 1916
1830, 1865, 1866, 1918, 1917
1831, 1866, 1867, 1919, 1918
1832, 1867, 1868, 1920, 1919
1833, 1868, 1869, 1921, 1920
1834, 1869, 1870, 1922, 1921
1835, 1870, 1871, 1923, 1922
1836, 1871, 1872, 1924, 1923
1837, 1873, 1874, 1926, 1925
1838, 1874, 1875, 1927, 1926
1839, 1875, 1876, 1928, 1927
1840, 1876, 1877, 1929, 1928
1841, 1877, 1878, 1930, 1929
1842, 1878, 1879, 1931, 1930
1843, 1879, 1880, 1932, 1931
1844, 1880, 1881, 1933, 1932
1845, 1881, 1882, 1934, 1933
1846, 1882, 1883, 1935, 1934
1847, 1883, 1884, 1936, 1935
1848, 1884, 1885, 1937, 1936
1849, 1885, 1886, 1938, 1937
1850, 1886, 1887, 1939, 1938
1851, 1887, 1888, 1940, 1939
1852, 1888, 1889, 1941, 1940
1853, 1889, 1890, 1942, 1941
1854, 1890, 1891, 1943, 1942
1855, 1891, 1892, 1944, 1943
1856, 1892, 1893, 1945, 1944
1857, 1893, 1894, 1946, 1945
1858, 1894, 1895, 1947, 1946
1859, 1895, 1896, 1948, 1947
1860, 1896, 1897, 1949, 1948
1861, 1897, 1898, 1950, 1949
1862, 1898, 1899, 1951, 1950
1863, 1899, 1900, 1952, 1951
1864, 1900, 1901, 1953, 1952
1865, 1901, 1902, 1954, 1953
1866, 1902, 1903, 1955, 1954
1867, 1903, 1904, 1956, 1955
1868, 1904, 1905, 1957, 1956
1869, 1905, 1906, 1958, 1957
1870, 1906, 1907, 1959, 1958
1871, 1907, 1908, 1960, 1959
1872, 1908, 1909, 1961, 1960
1873, 1909, 1910, 1962, 1961
1874, 1910, 1911, 1963, 1962
1875, 1911, 1912, 1964, 1963
1876, 1912, 1913, 1965, 1964
1877, 1913, 1914, 1966, 1965
1878, 1914, 1915, 1967, 1966
1879, 1915, 1916, 1968, 1967
1880, 1916, 1917, 1969, 1968
1881, 1917, 1918, 1970, 1969
1882, 1918, 1919, 1971, 1970
1883, 1919, 1920, 1972, 1971
1884, 1920, 1921, 1973, 1972
1885, 1921, 1922, 1974, 1973
1886, 1922, 1923, 1975, 1974
1887, 1923, 1924, 1976, 1975
1888, 1925, 1926, 1978, 1977
1889, 1926, 1927, 1979, 1978
1890, 1927, 1928, 1980, 1979
1891, 1928, 1929, 1981, 1980
1892, 1929, 1930, 1982, 1981
1893, 1930, 1931, 1983, 1982
1894, 1931, 1932, 1984, 1983
1895, 1932, 1933, 1985, 1984
1896, 1933, 1934, 1986, 1985
1897, 1934, 1935, 1987, 1986
1898, 1935, 1936, 1988, 1987
1899, 1936, 1937, 1989, 1988
1900, 1937, 1938, 1990, 1989
1901, 1938, 1939, 1991, 1990
1902, 1939, 1940, 1992, 1991
1903, 1940, 1941, 1993, 1992
1904, 1941, 1942, 1994, 1993
1905, 1942, 1943, 1995, 1994
1906, 1943, 1944, 1996, 1995
1907, 1944, 1945, 1997, 1996
1908, 1945, 1946, 1998, 1997
1909, 1946, 1947, 1999, 1998
1910, 1947, 1948, 2000, 1999
1911, 1948, 1949, 2001, 2000
1912, 1949, 1950, 2002, 2001
1913, 1950, 1951, 2003, 2002
1914, 1951, 1952, 2004, 2003
1915, 1952, 1953, 2005, 2004
1916, 1953, 1954, 2006, 2005
1917, 1954, 1955, 2007, 2006
1918, 1955, 1956, 2008, 2007
1919, 1956, 1957, 2009, 2008
1920, 1957, 1958, 2010, 2009
1921, 1958, 1959, 2011, 2010
1922, 1959, 1960, 2012, 2011
1923, 1960, 1961, 2013, 2012
1924, 1961, 1962, 2014, 2013
1925, 1962, 1963, 2015, 2014
1926, 1963, 1964, 2016, 2015
1927, 1964, 1965, 2017, 2016
1928, 1965, 1966, 2018, 2017
1929, 1966, 1967, 2019, 2018
1930, 1967, 1968, 2020, 2019
1931, 1968, 1969, 2021, 2020
1932, 1969, 1970, 2022, 2021
1933, 1970, 1971, 2023, 2022
1934, 1971, 1972, 2024, 2023
1935, 1972, 1973, 2025, 2024
1936, 1973, 1974, 2026, 2025
1937, 1974, 1975, 2027, 2026
1938, 1975, 1976, 2028, 2027
1939, 1977, 1978, 2030, 2029
1940, 1978, 1979, 2031, 2030
1941, 1979, 1980, 2032, 2031
1942, 1980, 1981, 2033, 2032
1943, 1981, 1982, 2034, 2033
1944, 1982, 1983, 2035, 2034
1945, 1983, 1984, 2036, 2035
1946, 1984, 1985, 2037, 2036
1947, 1985, 1986, 2038, 2037
1948, 1986, 1987, 2039, 2038
1949, 1987, 1988, 2040, 2039
1950, 1988, 1989, 2041, 2040
1951, 1989, 1990, 2042, 2041
1952, 1990, 1991, 2043, 2042
1953, 1991, 1992, 2044, 2043
1954, 1992, 1993, 2045, 2044
1955, 1993, 1994, 2046, 2045
1956, 1994, 1995, 2047, 2046
1957, 1995, 1996, 2048, 2047
1958, 1996, 1997, 2049, 2048
1959, 1997, 1998, 2050, 2049
1960, 1998, 1999, 2051, 2050
1961, 1999, 2000, 2052, 2051
1962, 2000, 2001, 2053, 2052
1963, 2001, 2002, 2054, 2053
1964, 2002, 2003, 2055, 2054
1965, 2003, 2004, 2056, 2055
1966, 2004, 2005, 2057, 2056
1967, 2005, 2006, 2058, 2057
1968, 2006, 2007, 2059, 2058
1969, 2007, 2008, 2060, 2059
1970, 2008, 2009, 2061, 2060
1971, 2009, 2010, 2062, 2061
1972, 2010, 2011, 2063, 2062
1973, 2011, 2012, 2064, 2063
1974, 2012, 2013, 2065, 2064
1975, 2013, 2014, 2066, 2065
1976, 2014, 2015, 2067, 2066
1977, 2015, 2016, 2068, 2067
1978, 2016, 2017, 2069, 2068
1979, 2017, 2018, 2070, 2069
1980, 2018, 2019, 2071, 2070
1981, 2019, 2020, 2072, 2071
1982, 2020, 2021, 2073, 2072
1983, 2021, 2022, 2074, 2073
1984, 2022, 2023, 2075, 2074
1985, 2023, 2024, 2076, 2075
1986, 2024, 2025, 2077, 2076
1987, 2025, 2026, 2078, 2077
1988, 2026, 2027, 2079, 2078
1989, 2027, 2028, 2080, 2079
1990, 2029, 2030, 2082, 2081
1991, 2030, 2031, 2083, 2082
1992, 2031, 2032, 2084, 2083
1993, 2032, 2033, 2085, 2084
1994, 2033, 2034, 2086, 2085
1995, 2034, 2035, 2087, 2086
1996, 2035, 2036, 2088, 2087
1997, 2036, 2037, 2089, 2088
1998, 2037, 2038, 2090, 2089
1999, 2038, 2039, 2091, 2090
2000, 2039, 2040, 2092, 2091
2001, 2040, 2041, 2093, 2092
2002, 2041, 2042, 2094, 2093
2003, 2042, 2043, 2095, 2094
2004, 2043, 2044, 2096, 2095
2005, 2044, 2045, 2097, 2096
2006, 2045, 2046, 2098, 2097
2007, 2046, 2047, 2099, 2098
2008, 2047, 2048, 2100, 2099
2009, 2048, 2049, 2101, 2100
2010, 2049, 2050, 2102, 2101
2011, 2050, 2051, 2103, 2102
2012, 2051, 2052, 2104, 2103
2013, 2052, 2053, 2105, 2104
2014, 2053, 2054, 2106, 2105
2015, 2054, 2055, 2107, 2106
2016, 2055, 2056, 2108, 2107
2017, 2056, 2057, 2109, 2108
2018, 2057, 2058, 2110, 2109
2019, 2058, 2059, 2111, 2110
2020, 2059, 2060, 2112, 2111
2021, 2060, 2061, 2113, 2112
2022, 2061, 2062, 2114, 2113
2023, 2062, 2063, 2115, 2114
2024, 2063, 2064, 2116, 2115
2025, 2064, 2065, 2117, 2116
2026, 2065, 2066, 2118, 2117
2027, 2066, 2067, 2119, 2118
2028, 2067, 2068, 2120, 2119
2029, 2068, 2069, 2121, 2120
2030, 2069, 2070, 2122, 2121
2031, 2070, 2071, 2123, 2122
2032, 2071, 2072, 2124, 2123
2033, 2072, 2073, 2125, 2124
2034, 2073, 2074, 2126, 2125
2035, 2074, 2075, 2127, 2126
2036, 2075, 2076, 2128, 2127
2037, 2076, 2077, 2129, 2128
2038, 2077, 2078, 2130, 2129
2039, 2078, 2079, 2131, 2130
2040, 2079, 2080, 2132, 2131
2041, 2081, 2082, 2134, 2133
2042, 2082, 2083, 2135, 2134
2043, 2083, 2084, 2136, 2135
2044, 2084, 2085, 2137, 2136
2045, 2085, 2086, 2138, 2137
2046, 2086, 2087, 2139, 2138
2047, 2087, 2088, 2140, 2139
2048, 2088, 2089, 2141, 2140
2049, 2089, 2090, 2142, 2141
2050, 2090, 2091, 2143, 2142
2051, 2091, 2092, 2144, 2143
2052, 2092, 2093, 2145, 2144
2053, 2093, 2094, 2146, 2145
2054, 2094, 2095, 2147, 2146
2055, 2095, 2096, 2148, 2147
2056, 2096, 2097, 2149, 2148
2057, 2097, 2098, 2150, 2149
2058, 2098, 2099, 2151, 2150
2059, 2099, 2100, 2152, 2151
2060, 2100, 2101, 2153, 2152
2061, 2101, 2102, 2154, 2153
2062, 2102, 2103, 2155, 2154
2063, 2103, 2104, 2156, 2155
2064, 2104, 2105, 2157, 2156
2065, 2105, 2106, 2158, 2157
2066, 2106, 2107, 2159, 2158
2067, 2107, 2108, 2160, 2159
2068, 2108, 2109, 2161, 2160
2069, 2109, 2110, 2162, 2161
2070, 2110, 2111, 2163, 2162
2071, 2111, 2112, 2164, 2163
2072, 2112, 2113, 2165, 2164
2073, 2113, 2114, 2166, 2165
2074, 2114, 2115, 2167, 2166
2075, 2115, 2116, 2168, 2167
2076, 2116, 2117, 2169, 2168
2077, 2117, 2118, 2170, 2169
2078, 2118, 2119, 2171, 2170
2079, 2119, 2120, 2172, 2171
2080, 2120, 2121, 2173, 2172
2081, 2121, 2122, 2174, 2173
2082, 2122, 2123, 2175, 2174
2083, 2123, 2124, 2176, 2175
2084, 2124, 2125, 2177, 2176
2085, 2125, 2126, 2178, 2177
2086, 2126, 2127, 2179, 2178
2087, 2127, 2128, 2180, 2179
2088, 2128, 2129, 2181, 2180
2089, 2129, 2130, 2182, 2181
2090, 2130, 2131, 2183, 2182
2091, 2131, 2132, 2184, 2183
2092, 2133, 2134, 2186, 2185
2093, 2134, 2135, 2187, 2186
2094, 2135, 2136, 2188, 2187
2095, 2136, 2137, 2189, 2188
2096, 2137, 2138, 2190, 2189
2097, 2138, 2139, 2191, 2190
2098, 2139, 2140, 2192, 2191
2099, 2140, 2141, 2193, 2192
2100, 2141, 2142, 2194, 2193
2101, 2142, 2143, 2195, 2194
2102, 2143, 2144, 2196, 2195
2103, 2144, 2145, 2197, 2196
2104, 2145, 2146, 2198, 2197
2105, 2146, 2147, 2199, 2198
2106, 2147, 2148, 2200, 2199
2107, 2148, 2149, 2201, 2200
2108, 2149, 2150, 2202, 2201
2109, 2150, 2151, 2203, 2202
2110, 2151, 2152, 2204, 2203
2111, 2152, 2153, 2205, 2204
2112, 2153, 2154, 2206, 2205
2113, 2154, 2155, 2207, 2206
2114, 2155, 2156, 2208, 2207
2115, 2156, 2157, 2209, 2208
2116, 2157, 2158, 2210, 2209
2117, 2158, 2159, 2211, 2210
2118, 2159, 2160, 2212, 2211
2119, 2160, 2161, 2213, 2212
2120, 2161, 2162, 2214, 2213
2121, 2162, 2163, 2215, 2214
2122, 2163, 2164, 2216, 2215
2123, 2164, 2165, 2217, 2216
2124, 2165, 2166, 2218, 2217
2125, 2166, 2167, 2219, 2218
2126, 2167, 2168, 2220, 2219
2127, 2168, 2169, 2221, 2220
2128, 2169, 2170, 2222, 2221
2129, 2170, 2171, 2223, 2222
2130, 2171, 2172, 2224, 2223
2131, 2172, 2173, 2225, 2224
2132, 2173, 2174, 2226, 2225
2133, 2174, 2175, 2227, 2226
2134, 2175, 2176, 2228, 2227
2135, 2176, 2177, 2229, 2228
2136, 2177, 2178, 2230, 2229
2137, 2178, 2179, 2231, 2230
2138, 2179, 2180, 2232, 2231
2139, 2180, 2181, 2233, 2232
2140, 2181, 2182, 2234, 2233
2141, 2182, 2183, 2235, 2234
2142, 2183, 2184, 2236, 2235
2143, 2185, 2186, 2238, 2237
2144, 2186, 2187, 2239, 2238
2145, 2187, 2188, 2240, 2239
2146, 2188, 2189, 2241, 2240
2147, 2189, 2190, 2242, 2241
2148, 2190, 2191, 2243, 2242
2149, 2191, 2192, 2244, 2243
2150, 2192, 2193, 2245, 2244
2151, 2193, 2194, 2246, 2245
2152, 2194, 2195, 2247, 2246
2153, 2195, 2196, 2248, 2247
2154, 2196, 2197, 2249, 2248
2155, 2197, 2198, 2250, 2249
2156, 2198, 2199, 2251, 2250
2157, 2199, 2200, 2252, 2251
2158, 2200, 2201, 2253, 2252
2159, 2201, 2202, 2254, 2253
2160, 2202, 2203, 2255, 2254
2161, 2203, 2204, 2256, 2255
2162, 2204, 2205, 2257, 2256
2163, 2205, 2206, 2258, 2257
2164, 2206, 2207, 2259, 2258
2165, 2207, 2208, 2260, 2259
2166, 2208, 2209, 2261, 2260
2167, 2209, 2210, 2262, 2261
2168, 2210, 2211, 2263, 2262
2169, 2211, 2212, 2264, 2263
2170, 2212, 2213, 2265, 2264
2171, 2213, 2214, 2266, 2265
2172, 2214, 2215, 2267, 2266
2173, 2215, 2216, 2268, 2267
2174, 2216, 2217, 2269, 2268
2175, 2217, 2218, 2270, 2269
2176, 2218, 2219, 2271, 2270
2177, 2219, 2220, 2272, 2271
2178, 2220, 2221, 2273, 2272
2179, 2221, 2222, 2274, 2273
2180, 2222, 2223, 2275, 2274
2181, 2223, 2224, 2276, 2275
2182, 2224, 2225, 2277, 2276
2183, 2225, 2226, 2278, 2277
2184, 2226, 2227, 2279, 2278
2185, 2227, 2228, 2280, 2279
2186, 2228, 2229, 2281, 2280
2187, 2229, 2230, 2282, 2281
2188, 2230, 2231, 2283, 2282
2189, 2231, 2232, 2284, 2283
2190, 2232, 2233, 2285, 2284
2191, 2233, 2234, 2286, 2285
2192, 2234, 2235, 2287, 2286
2193, 2235, 2236, 2288, 2287
2194, 2237, 2238, 2290, 2289
2195, 2238, 2239, 2291, 2290
2196, 2239, 2240, 2292, 2291
2197, 2240, 2241, 2293, 2292
2198, 2241, 2242, 2294, 2293
2199, 2242, 2243, 2295, 2294
2200, 2243, 2244, 2296, 2295
2201, 2244, 2245, 2297, 2296
2202, 2245, 2246, 2298, 2297
2203, 2246, 2247, 2299, 2298
2204, 2247, 2248, 2300, 2299
2205, 2248, 2249, 2301, 2300
2206, 2249, 2250, 2302, 2301
2207, 2250, 2251, 2303, 2302
2208, 2251, 2252, 2304, 2303
2209, 2252, 2253, 2305, 2304
2210, 2253, 2254, 2306, 2305
2211, 2254, 2255, 2307, 2306
2212, 2255, 2256, 2308, 2307
2213, 2256, 2257, 2309, 2308
2214, 2257, 2258, 2310, 2309
2215, 2258, 2259, 2311, 2310
2216, 2259, 2260, 2312, 2311
2217, 2260, 2261, 2313, 2312
2218, 2261, 2262, 2314, 2313
2219, 2262, 2263, 2315, 2314
2220, 2263, 2264, 2316, 2315
2221, 2264, 2265, 2317, 2316
2222, 2265, 2266, 2318, 2317
2223, 2266, 2267, 2319, 2318
2224, 2267, 2268, 2320, 2319
2225, 2268, 2269, 2321, 2320
2226, 2269, 2270, 2322, 2321
2227, 2270, 2271, 2323, 2322
2228, 2271, 2272, 2324, 2323
2229, 2272, 2273, 2325, 2324
2230, 2273, 2274, 2326, 2325
2231, 2274, 2275, 2327, 2326
2232, 2275, 2276, 2328, 2327
2233, 2276, 2277, 2329, 2328
2234, 2277, 2278, 2330, 2329
2235, 2278, 2279, 2331, 2330
2236, 2279, 2280, 2332, 2331
2237, 2280, 2281, 2333, 2332
2238, 2281, 2282, 2334, 2333
2239, 2282, 2283, 2335, 2334
2240, 2283, 2284, 2336, 2335
2241, 2284, 2285, 2337, 2336
2242, 2285, 2286, 2338, 2337
2243, 2286, 2287, 2339, 2338
2244, 2287, 2288, 2340, 2339
2245, 2289, 2290, 2342, 2341
2246, 2290, 2291, 2343, 2342
2247, 2291, 2292, 2344, 2343
2248, 2292, 2293, 2345, 2344
2249, 2293, 2294, 2346, 2345
2250, 2294, 2295, 2347, 2346
2251, 2295, 2296, 2348, 2347
2252, 2296, 2297, 2349, 2348
2253, 2297, 2298, 2350, 2349
2254, 2298, 2299, 2351, 2350
2255, 2299, 2300, 2352, 2351
2256, 2300, 2301, 2353, 2352
2257, 2301, 2302, 2354, 2353
2258, 2302, 2303, 2355, 2354
2259, 2303, 2304, 2356, 2355
2260, 2304, 2305, 2357, 2356
2261, 2305, 2306, 2358, 2357
2262, 2306, 2307, 2359, 2358
2263, 2307, 2308, 2360, 2359
2264, 2308, 2309, 2361, 2360
2265, 2309, 2310, 2362, 2361
2266, 2310, 2311, 2363, 2362
2267, 2311, 2312, 2364, 2363
2268, 2312, 2313, 2365, 2364
2269, 2313, 2314, 2366, 2365
2270, 2314, 2315, 2367, 2366
2271, 2315, 2316, 2368, 2367
2272, 2316, 2317, 2369, 2368
2273, 2317, 2318, 2370, 2369
2274, 2318, 2319, 2371, 2370
2275, 2319, 2320, 2372, 2371
2276, 2320, 2321, 2373, 2372
2277, 2321, 2322, 2374, 2373
2278, 2322, 2323, 2375, 2374
2279, 2323, 2324, 2376, 2375
2280, 2324, 2325, 2377, 2376
2281, 2325, 2326, 2378, 2377
2282, 2326, 2327, 2379, 2378
2283, 2327, 2328, 2380, 2379
2284, 2328, 2329, 2381, 2380
2285, 2329, 2330, 2382, 2381
2286, 2330, 2331, 2383, 2382
2287, 2331, 2332, 2384, 2383
2288, 2332, 2333, 2385, 2384
2289, 2333, 2334, 2386, 2385
2290, 2334, 2335, 2387, 2386
2291, 2335, 2336, 2388, 2387
2292, 2336, 2337, 2389, 2388
2293, 2337, 2338, 2390, 2389
2294, 2338, 2339, 2391, 2390
2295, 2339, 2340, 2392, 2391
2296, 2341, 2342, 2394, 2393
2297, 2342, 2343, 2395, 2394
2298, 2343, 2344, 2396, 2395
2299, 2344, 2345, 2397, 2396
2300, 2345, 2346, 2398, 2397
2301, 2346, 2347, 2399, 2398
2302, 2347, 2348, 2400, 2399
2303, 2348, 2349, 2401, 2400
2304, 2349, 2350, 2402, 2401
2305, 2350, 2351, 2403, 2402
2306, 2351, 2352, 2404, 2403
2307, 2352, 2353, 2405, 2404
2308, 2353, 2354, 2406, 2405
2309, 2354, 2355, 2407, 2406
2310, 2355, 2356, 2408, 2407
2311, 2356, 2357, 2409, 2408
2312, 2357, 2358, 2410, 2409
2313, 2358, 2359, 2411, 2410
2314, 2359, 2360, 2412, 2411
2315, 2360, 2361, 2413, 2412
2316, 2361, 2362, 2414, 2413
2317, 2362, 2363, 2415, 2414
2318, 2363, 2364, 2416, 2415
2319, 2364, 2365, 2417, 2416
2320, 2365, 2366, 2418, 2417
2321, 2366, 2367, 2419, 2418
2322, 2367, 2368, 2420, 2419
2323, 2368, 2369, 2421, 2420
2324, 2369, 2370, 2422, 2421
2325, 2370, 2371, 2423, 2422
2326, 2371, 2372, 2424, 2423
2327, 2372, 2373, 2425, 2424
2328, 2373, 2374, 2426, 2425
2329, 2374, 2375, 2427, 2426
2330, 2375, 2376, 2428, 2427
2331, 2376, 2377, 2429, 2428
2332, 2377, 2378, 2430, 2429
2333, 2378, 2379, 2431, 2430
2334, 2379, 2380, 2432, 2431
2335, 2380, 2381, 2433, 2432
2336, 2381, 2382, 2434, 2433
2337, 2382, 2383, 2435, 2434
2338, 2383, 2384, 2436, 2435
2339, 2384, 2385, 2437, 2436
2340, 2385, 2386, 2438, 2437
2341, 2386, 2387, 2439, 2438
2342, 2387, 2388, 2440, 2439
2343, 2388, 2389, 2441, 2440
2344, 2389, 2390, 2442, 2441
2345, 2390, 2391, 2443, 2442
2346, 2391, 2392, 2444, 2443
2347, 2393, 2394, 2446, 2445
2348, 2394, 2395, 2447, 2446
2349, 2395, 2396, 2448, 2447
2350, 2396, 2397, 2449, 2448
2351, 2397, 2398, 2450, 2449
2352, 2398, 2399, 2451, 2450
2353, 2399, 2400, 2452, 2451
2354, 2400, 2401, 2453, 2452
2355, 2401, 2402, 2454, 2453
2356, 2402, 2403, 2455, 2454
2357, 2403, 2404, 2456, 2455
2358, 2404, 2405, 2457, 2456
2359, 2405, 2406, 2458, 2457
2360, 2406, 2407, 2459, 2458
2361, 2407, 2408, 2460, 2459
2362, 2408, 2409, 2461, 2460
2363, 2409, 2410, 2462, 2461
2364, 2410, 2411, 2463, 2462
2365, 2411, 2412, 2464, 2463
2366, 2412, 2413, 2465, 2464
2367, 2413, 2414, 2466, 2465
2368, 2414, 2415, 2467, 2466
2369, 2415, 2416, 2468, 2467
2370, 2416, 2417, 2469, 2468
2371, 2417, 2418, 2470, 2469
2372, 2418, 2419, 2471, 2470
2373, 2419, 2420, 2472, 2471
2374, 2420, 2421, 2473, 2472
2375, 2421, 2422, 2474, 2473
2376, 2422, 2423, 2475, 2474
2377, 2423, 2424, 2476, 2475
2378, 2424, 2425, 2477, 2476
2379, 2425, 2426, 2478, 2477
2380, 2426, 2427, 2479, 2478
2381, 2427, 2428, 2480, 2479
2382, 2428, 2429, 2481, 2480
2383, 2429, 2430, 2482, 2481
2384, 2430, 2431, 2483, 2482
2385, 2431, 2432, 2484, 2483
2386, 2432, 2433, 2485, 2484
2387, 2433, 2434, 2486, 2485
2388, 2434, 2435, 2487, 2486
2389, 2435, 2436, 2488, 2487
2390, 2436, 2437, 2489, 2488
2391, 2437, 2438, 2490, 2489
2392, 2438, 2439, 2491, 2490
2393, 2439, 2440, 2492, 2491
2394, 2440, 2441, 2493, 2492
2395, 2441, 2442, 2494, 2493
2396, 2442, 2443, 2495, 2494
2397, 2443, 2444, 2496, 2495
2398, 2445, 2446, 2498, 2497
2399, 2446, 2447, 2499, 2498
2400, 2447, 2448, 2500, 2499
2401, 2448, 2449, 2501, 2500
2402, 2449, 2450, 2502, 2501
2403, 2450, 2451, 2503, 2502
2404, 2451, 2452, 2504, 2503
2405, 2452, 2453, 2505, 2504
2406, 2453, 2454, 2506, 2505
2407, 2454, 2455, 2507, 2506
2408, 2455, 2456, 2508, 2507
2409, 2456, 2457, 2509, 2508
2410, 2457, 2458, 2510, 2509
2411, 2458, 2459, 2511, 2510
2412, 2459, 2460, 2512, 2511
2413, 2460, 2461, 2513, 2512
2414, 2461, 2462, 2514, 2513
2415, 2462, 2463, 2515, 2514
2416, 2463, 2464, 2516, 2515
2417, 2464, 2465, 2517, 2516
2418, 2465, 2466, 2518, 2517
2419, 2466, 2467, 2519, 2518
2420, 2467, 2468, 2520, 2519
2421, 2468, 2469, 2521, 2520
2422, 2469, 2470, 2522, 2521
2423, 2470, 2471, 2523, 2522
2424, 2471, 2472, 2524, 2523
2425, 2472, 2473, 2525, 2524
2426, 2473, 2474, 2526, 2525
2427, 2474, 2475, 2527, 2526
2428, 2475, 2476, 2528, 2527
2429, 2476, 2477, 2529, 2528
2430, 2477, 2478, 2530, 2529
2431, 2478, 2479, 2531, 2530
2432, 2479, 2480, 2532, 2531
2433, 2480, 2481, 2533, 2532
2434, 2481, 2482, 2534, 2533
2435, 2482, 2483, 2535, 2534
2436, 2483, 2484, 2536, 2535
2437, 2484, 2485, 2537, 2536
2438, 2485, 2486, 2538, 2537
2439, 2486, 2487, 2539, 2538
2440, 2487, 2488, 2540, 2539
2441, 2488, 2489, 2541, 2540
2442, 2489, 2490, 2542, 2541
2443, 2490, 2491, 2543, 2542
2444, 2491, 2492, 2544, 2543
2445, 2492, 2493, 2545, 2544
2446, 2493, 2494, 2546, 2545
2447, 2494, 2495, 2547, 2546
2448, 2495, 2496, 2548, 2547
2449, 2497, 2498, 2550, 2549
2450, 2498, 2499, 2551, 2550
2451, 2499, 2500, 2552, 2551
2452, 2500, 2501, 2553, 2552
2453, 2501, 2502, 2554, 2553
2454, 2502, 2503, 2555, 2554
2455, 2503, 2504, 2556, 2555
2456, 2504, 2505, 2557, 2556
2457, 2505, 2506, 2558, 2557
2458, 2506, 2507, 2559, 2558
2459, 2507, 2508, 2560, 2559
2460, 2508, 2509, 2561, 2560
2461, 2509, 2510, 2562, 2561
2462, 2510, 2511, 2563, 2562
2463, 2511, 2512, 2564, 2563
2464, 2512, 2513, 2565, 2564
2465, 2513, 2514, 2566, 2565
2466, 2514, 2515, 2567, 2566
2467, 2515, 2516, 2568, 2567
2468, 2516, 2517, 2569, 2568
2469, 2517, 2518, 2570, 2569
2470, 2518, 2519, 2571, 2570
2471, 2519, 2520, 2572, 2571
2472, 2520, 2521, 2573, 2572
2473, 2521, 2522, 2574, 2573
2474, 2522, 2523, 2575, 2574
2475, 2523, 2524, 2576, 2575
2476, 2524, 2525, 2577, 2576
2477, 2525, 2526, 2578, 2577
2478, 2526, 2527, 2579, 2578
2479, 2527, 2528, 2580, 2579
2480, 2528, 2529, 2581, 2580
2481, 2529, 2530, 2582, 2581
2482, 2530, 2531, 2583, 2582
2483, 2531, 2532, 2584, 2583
2484, 2532, 2533, 2585, 2584
2485, 2533, 2534, 2586, 2585
2486, 2534, 2535, 2587, 2586
2487, 2535, 2536, 2588, 2587
2488, 2536, 2537, 2589, 2588
2489, 2537, 2538, 2590, 2589
2490, 2538, 2539, 2591, 2590
2491, 2539, 2540, 2592, 2591
2492, 2540, 2541, 2593, 2592
2493, 2541, 2542, 2594, 2593
2494, 2542, 2543, 2595, 2594
2495, 2543, 2544, 2596, 2595
2496, 2544, 2545, 2597, 2596
2497, 2545, 2546, 2598, 2597
2498, 2546, 2547, 2599, 2598
2499, 2547, 2548, 2600, 2599
2500, 2549, 2550, 2602, 2601
2501, 2550, 2551, 2603, 2602
2502, 2551, 2552, 2604, 2603
2503, 2552, 2553, 2605, 2604
2504, 2553, 2554, 2606, 2605
2505, 2554, 2555, 2607, 2606
2506, 2555, 2556, 2608, 2607
2507, 2556, 2557, 2609, 2608
2508, 2557, 2558, 2610, 2609
2509, 2558, 2559, 2611, 2610
2510, 2559, 2560, 2612, 2611
2511, 2560, 2561, 2613, 2612
2512, 2561, 2562, 2614, 2613
2513, 2562, 2563, 2615, 2614
2514, 2563, 2564, 2616, 2615
2515, 2564, 2565, 2617, 2616
2516, 2565, 2566, 2618, 2617
2517, 2566, 2567, 2619, 2618
2518, 2567, 2568, 2620, 2619
2519, 2568, 2569, 2621, 2620
2520, 2569, 2570, 2622, 2621
2521, 2570, 2571, 2623, 2622
2522, 2571, 2572, 2624, 2623
2523, 2572, 2573, 2625, 2624
2524, 2573, 2574, 2626, 2625
2525, 2574, 2575, 2627, 2626
2526, 2575, 2576, 2628, 2627
2527, 2576, 2577, 2629, 2628
2528, 2577, 2578, 2630, 2629
2529, 2578, 2579, 2631, 2630
2530, 2579, 2580, 2632, 2631
2531, 2580, 2581, 2633, 2632
2532, 2581, 2582, 2634, 2633
2533, 2582, 2583, 2635, 2634
2534, 2583, 2584, 2636, 2635
2535, 2584, 2585, 2637, 2636
2536, 2585, 2586, 2638, 2637
2537, 2586, 2587, 2639, 2638
2538, 2587, 2588, 2640, 2639
2539, 2588, 2589, 2641, 2640
2540, 2589, 2590, 2642, 2641
2541, 2590, 2591, 2643, 2642
2542, 2591, 2592, 2644, 2643
2543, 2592, 2593, 2645, 2644
2544, 2593, 2594, 2646, 2645
2545, 2594, 2595, 2647, 2646
2546, 2595, 2596, 2648, 2647
2547, 2596, 2597, 2649, 2648
2548, 2597, 2598, 2650, 2649
2549, 2598, 2599, 2651, 2650
2550, 2599, 2600, 2652, 2651
2551, 2601, 2602, 2654, 2653
2552, 2602, 2603, 2655, 2654
2553, 2603, 2604, 2656, 2655
2554, 2604, 2605, 2657, 2656
2555, 2605, 2606, 2658, 2657
2556, 2606, 2607, 2659, 2658
2557, 2607, 2608, 2660, 2659
2558, 2608, 2609, 2661, 2660
2559, 2609, 2610, 2662, 2661
2560, 2610, 2611, 2663, 2662
2561, 2611, 2612, 2664, 2663
2562, 2612, 2613, 2665, 2664
2563, 2613, 2614, 2666, 2665
2564, 2614, 2615, 2667, 2666
2565, 2615, 2616, 2668, 2667
2566, 2616, 2617, 2669, 2668
2567, 2617, 2618, 2670, 2669
2568, 2618, 2619, 2671, 2670
2569, 2619, 2620, 2672, 2671
2570, 2620, 2621, 2673, 2672
2571, 2621, 2622, 2674, 2673
2572, 2622, 2623, 2675, 2674
2573, 2623, 2624, 2676, 2675
2574, 2624, 2625, 2677, 2676
2575, 2625, 2626, 2678, 2677
2576, 2626, 2627, 2679, 2678
2577, 2627, 2628, 2680, 2679
2578, 2628, 2629, 2681, 2680
2579, 2629, 2630, 2682, 2681
2580, 2630, 2631, 2683, 2682
2581, 2631, 2632, 2684, 2683
2582, 2632, 2633, 2685, 2684
2583, 2633, 2634, 2686, 2685
2584, 2634, 2635, 2687, 2686
2585, 2635, 2636, 2688, 2687
2586, 2636, 2637, 2689, 2688
2587, 2637, 2638, 2690, 2689
2588, 2638, 2639, 2691, 2690
2589, 2639, 2640, 2692, 2691
2590, 2640, 2641, 2693, 2692
2591, 2641, 2642, 2694, 2693
2592, 2642, 2643, 2695, 2694
2593, 2643, 2644, 2696, 2695
2594, 2644, 2645, 2697, 2696
2595, 2645, 2646, 2698, 2697
2596, 2646, 2647, 2699, 2698
2597, 2647, 2648, 2700, 2699
2598, 2648, 2649, 2701, 2700
2599, 2649, 2650, 2702, 2701
2600, 2650, 2651, 2703, 2702
2601, 2651, 2652, 2704, 2703
2602, 2653, 2654, 2706, 2705
2603, 2654, 2655, 2707, 2706
2604, 2655, 2656, 2708, 2707
2605, 2656, 2657, 2709, 2708
2606, 2657, 2658, 2710, 2709
2607, 2658, 2659, 2711, 2710
2608, 2659, 2660, 2712, 2711
2609, 2660, 2661, 2713, 2712
2610, 2661, 2662, 2714, 2713
2611, 2662, 2663, 2715, 2714
2612, 2663, 2664, 2716, 2715
2613, 2664, 2665, 2717, 2716
2614, 2665, 2666, 2718, 2717
2615, 2666, 2667, 2719, 2718
2616, 2667, 2668, 2720, 2719
2617, 2668, 2669, 2721, 2720
2618, 2669, 2670, 2722, 2721
2619, 2670, 2671, 2723, 2722
2620, 2671, 2672, 2724, 2723
2621, 2672, 2673, 2725, 2724
2622, 2673, 2674, 2726, 2725
2623, 2674, 2675, 2727, 2726
2624, 2675, 2676, 2728, 2727
2625, 2676, 2677, 2729, 2728
2626, 2677, 2678, 2730, 2729
2627, 2678, 2679, 2731, 2730
2628, 2679, 2680, 2732, 2731
2629, 2680, 2681, 2733, 2732
2630, 2681, 2682, 2734, 2733
2631, 2682, 2683, 2735, 2734
2632, 2683, 2684, 2736, 2735
2633, 2684, 2685, 2737, 2736
2634, 2685, 2686, 2738, 2737
2635, 2686, 2687, 2739, 2738
2636, 2687, 2688, 2740, 2739
2637, 2688, 2689, 2741, 2740
2638, 2689, 2690, 2742, 2741
2639, 2690, 2691, 2743, 2742
2640, 2691, 2692, 2744, 2743
2641, 2692, 2693, 2745, 2744
2642, 2693, 2694, 2746, 2745
2643, 2694, 2695, 2747, 2746
2644, 2695, 2696, 2748, 2747
2645, 2696, 2697, 2749, 2748
2646, 2697, 2698, 2750, 2749
2647, 2698, 2699, 2751, 2750
2648, 2699, 2700, 2752, 2751
2649, 2700, 2701, 2753, 2752
2650, 2701, 2702, 2754, 2753
2651, 2702, 2703, 2755, 2754
2652, 2703, 2704, 2756, 2755
2653, 2705, 2706, 2758, 2757
2654, 2706, 2707, 2759, 2758
2655, 2707, 2708, 2760, 2759
2656, 2708, 2709, 2761, 2760
2657, 2709, 2710, 2762, 2761
2658, 2710, 2711, 2763, 2762
2659, 2711, 2712, 2764, 2763
2660, 2712, 2713, 2765, 2764
2661, 2713, 2714, 2766, 2765
2662, 2714, 2715, 2767, 2766
2663, 2715, 2716, 2768, 2767
2664, 2716, 2717, 2769, 2768
2665, 2717, 2718, 2770, 2769
2666, 2718, 2719, 2771, 2770
2667, 2719, 2720, 2772, 2771
2668, 2720, 2721, 2773, 2772
2669, 2721, 2722, 2774, 2773
2670, 2722, 2723, 2775, 2774
2671, 2723, 2724, 2776, 2775
2672, 2724, 2725, 2777, 2776
2673, 2725, 2726, 2778, 2777
2674, 2726, 2727, 2779, 2778
2675, 2727, 2728, 2780, 2779
2676, 2728, 2729, 2781, 2780
2677, 2729, 2730, 2782, 2781
2678, 2730, 2731, 2783, 2782
2679, 2731, 2732, 2784, 2783
2680, 2732, 2733, 2785, 2784
2681, 2733, 2734, 2786, 2785
2682, 2734, 2735, 2787, 2786
2683, 2735, 2736, 2788, 2787
2684, 2736, 2737, 2789, 2788
2685, 2737, 2738, 2790, 2789
2686, 2738, 2739, 2791, 2790
2687, 2739, 2740, 2792, 2791
2688, 2740, 2741, 2793, 2792
2689, 2741, 2742, 2794, 2793
2690, 2742, 2743, 2795, 2794
2691, 2743, 2744, 2796, 2795
2692, 2744, 2745, 2797, 2796
2693, 2745, 2746, 2798, 2797
2694, 2746, 2747, 2799, 2798
2695, 2747, 2748, 2800, 2799
2696, 2748, 2749, 2801, 2800
2697, 2749, 2750, 2802, 2801
2698, 2750, 2751, 2803, 2802
2699, 2751, 2752, 2804, 2803
2700, 2752, 2753, 2805, 2804
2701, 2753, 2754, 2806, 2805
2702, 2754, 2755, 2807, 2806
2703, 2755, 2756, 2808, 2807
2704, 2757, 2758, 2810, 2809
2705, 2758, 2759, 2811, 2810
2706, 2759, 2760, 2812, 2811
2707, 2760, 2761, 2813, 2812
2708, 2761, 2762, 2814, 2813
2709, 2762, 2763, 2815, 2814
2710, 2763, 2764, 2816, 2815
2711, 2764, 2765, 2817, 2816
2712, 2765, 2766, 2818, 2817
2713, 2766, 2767, 2819, 2818
2714, 2767, 2768, 2820, 2819
2715, 2768, 2769, 2821, 2820
2716, 2769, 2770, 2822, 2821
2717, 2770, 2771, 2823, 2822
2718, 2771, 2772, 2824, 2823
2719, 2772, 2773, 2825, 2824
2720, 2773, 2774, 2826, 2825
2721, 2774, 2775, 2827, 2826
2722, 2775, 2776, 2828, 2827
2723, 2776, 2777, 2829, 2828
2724, 2777, 2778, 2830, 2829
2725, 2778, 2779, 2831, 2830
2726, 2779, 2780, 2832, 2831
2727, 2780, 2781, 2833, 2832
2728, 2781, 2782, 2834, 2833
2729, 2782, 2783, 2835, 2834
2730, 2783, 2784, 2836, 2835
2731, 2784, 2785, 2837, 2836
2732, 2785, 2786, 2838, 2837
2733, 2786, 2787, 2839, 2838
2734, 2787, 2788, 2840, 2839
2735, 2788, 2789, 2841, 2840
2736, 2789, 2790, 2842, 2841
2737, 2790, 2791, 2843, 2842
2738, 2791, 2792, 2844, 2843
2739, 2792, 2793, 2845, 2844
2740, 2793, 2794, 2846, 2845
2741, 2794, 2795, 2847, 2846
2742, 2795, 2796, 2848, 2847
2743, 2796, 2797, 2849, 2848
2744, 2797, 2798, 2850, 2849
2745, 2798, 2799, 2851, 2850
2746, 2799, 2800, 2852, 2851
2747, 2800, 2801, 2853, 2852
2748, 2801, 2802, 2854, 2853
2749, 2802, 2803, 2855, 2854
2750, 2803, 2804, 2856, 2855
2751, 2804, 2805, 2857, 2856
2752, 2805, 2806, 2858, 2857
2753, 2806, 2807, 2859, 2858
2754, 2807, 2808, 2860, 2859
2755, 2809, 2810, 2862, 2861
2756, 2810, 2811, 2863, 2862
2757, 2811, 2812, 2864, 2863
2758, 2812, 2813, 2865, 2864
2759, 2813, 2814, 2866, 2865
2760, 2814, 2815, 2867, 2866
2761, 2815, 2816, 2868, 2867
2762, 2816, 2817, 2869, 2868
2763, 2817, 2818, 2870, 2869
2764, 2818, 2819, 2871, 2870
2765, 2819, 2820, 2872, 2871
2766, 2820, 2821, 2873, 2872
2767, 2821, 2822, 2874, 2873
2768, 2822, 2823, 2875, 2874
2769, 2823, 2824, 2876, 2875
2770, 2824, 2825, 2877, 2876
2771, 2825, 2826, 2878, 2877
2772, 2826, 2827, 2879, 2878
2773, 2827, 2828, 2880, 2879
2774, 2828, 2829, 2881, 2880
2775, 2829, 2830, 2882, 2881
2776, 2830, 2831, 2883, 2882
2777, 2831, 2832, 2884, 2883
2778, 2832, 2833, 2885, 2884
2779, 2833, 2834, 2886, 2885
2780, 2834, 2835, 2887, 2886
2781, 2835, 2836, 2888, 2887
2782, 2836, 2837, 2889, 2888
2783, 2837, 2838, 2890, 2889
2784, 2838, 2839, 2891, 2890
2785, 2839, 2840, 2892, 2891
2786, 2840, 2841, 2893, 2892
2787, 2841, 2842, 2894, 2893
2788, 2842, 2843, 2895, 2894
2789, 2843, 2844, 2896, 2895
2790, 2844, 2845, 2897, 2896
2791, 2845, 2846, 2898, 2897
2792, 2846, 2847, 2899, 2898
2793, 2847, 2848, 2900, 2899
2794, 2848, 2849, 2901, 2900
2795, 2849, 2850, 2902, 2901
2796, 2850, 2851, 2903, 2902
2797, 2851, 2852, 2904, 2903
2798, 2852, 2853, 2905, 2904
2799, 2853, 2854, 2906, 2905
2800, 2854, 2855, 2907, 2906
2801, 2855, 2856, 2908, 2907
2802, 2856, 2857, 2909, 2908
2803, 2857, 2858, 2910, 2909
2804, 2858, 2859, 2911, 2910
2805, 2859, 2860, 2912, 2911
2806, 2861, 2862, 2914, 2913
2807, 2862, 2863, 2915, 2914
2808, 2863, 2864, 2916, 2915
2809, 2864, 2865, 2917, 2916
2810, 2865, 2866, 2918, 2917
2811, 2866, 2867, 2919, 2918
2812, 2867, 2868, 2920, 2919
2813, 2868, 2869, 2921, 2920
2814, 2869, 2870, 2922, 2921
2815, 2870, 2871, 2923, 2922
2816, 2871, 2872, 2924, 2923
2817, 2872, 2873, 2925, 2924
2818, 2873, 2874, 2926, 2925
2819, 2874, 2875, 2927, 2926
2820, 2875, 2876, 2928, 2927
2821, 2876, 2877, 2929, 2928
2822, 2877, 2878, 2930, 2929
2823, 2878, 2879, 2931, 2930
2824, 2879, 2880, 2932, 2931
2825, 2880, 2881, 2933, 2932
2826, 2881, 2882, 2934, 2933
2827, 2882, 2883, 2935, 2934
2828, 2883, 2884, 2936, 2935
2829, 2884, 2885, 2937, 2936
2830, 2885, 2886, 2938, 2937
2831, 2886, 2887, 2939, 2938
2832, 2887, 2888, 2940, 2939
2833, 2888, 2889, 2941, 2940
2834, 2889, 2890, 2942, 2941
2835, 2890, 2891, 2943, 2942
2836, 2891, 2892, 2944, 2943
2837, 2892, 2893, 2945, 2944
2838, 2893, 2894, 2946, 2945
2839, 2894, 2895, 2947, 2946
2840, 2895, 2896, 2948, 2947
2841, 2896, 2897, 2949, 2948
2842, 2897, 2898, 2950, 2949
2843, 2898, 2899, 2951, 2950
2844, 2899, 2900, 2952, 2951
2845, 2900, 2901, 2953, 2952
2846, 2901, 2902, 2954, 2953
2847, 2902, 2903, 2955, 2954
2848, 2903, 2904, 2956, 2955
2849, 2904, 2905, 2957, 2956
2850, 2905, 2906, 2958, 2957
2851, 2906, 2907, 2959, 2958
2852, 2907, 2908, 2960, 2959
2853, 2908, 2909, 2961, 2960
2854, 2909, 2910, 2962, 2961
2855, 2910, 2911, 2963, 2962
2856, 2911, 2912, 2964, 2963
2857, 2913, 2914, 2966, 2965
2858, 2914, 2915, 2967, 2966
2859, 2915, 2916, 2968, 2967
2860, 2916, 2917, 2969, 2968
2861, 2917, 2918, 2970, 2969
2862, 2918, 2919, 2971, 2970
2863, 2919, 2920, 2972, 2971
2864, 2920, 2921, 2973, 2972
2865, 2921, 2922, 2974, 2973
2866, 2922, 2923, 2975, 2974
2867, 2923, 2924, 2976, 2975
2868, 2924, 2925, 2977, 2976
2869, 2925, 2926, 2978, 2977
2870, 2926, 2927, 2979, 2978
2871, 2927, 2928, 2980, 2979
2872, 2928, 2929, 2981, 2980
2873, 2929, 2930, 2982, 2981
2874, 2930, 2931, 2983, 2982
2875, 2931, 2932, 2984, 2983
2876, 2932, 2933, 2985, 2984
2877, 2933, 2934, 2986, 2985
2878, 2934, 2935, 2987, 2986
2879, 2935, 2936, 2988, 2987
2880, 2936, 2937, 2989, 2988
2881, 2937, 2938, 2990, 2989
2882, 2938, 2939, 2991, 2990
2883, 2939, 2940, 2992, 2991
2884, 2940, 2941, 2993, 2992
2885, 2941, 2942, 2994, 2993
2886, 2942, 2943, 2995, 2994
2887, 2943, 2944, 2996, 2995
2888, 2944, 2945, 2997, 2996
2889, 2945, 2946, 2998, 2997
2890, 2946, 2947, 2999, 2998
2891, 2947, 2948, 3000, 2999
2892, 2948, 2949, 3001, 3000
2893, 2949, 2950, 3002, 3001
2894, 2950, 2951, 3003, 3002
2895, 2951, 2952, 3004, 3003
2896, 2952, 2953, 3005, 3004
2897, 2953, 2954, 3006, 3005
2898, 2954, 2955, 3007, 3006
2899, 2955, 2956, 3008, 3007
2900, 2956, 2957, 3009, 3008
2901, 2957, 2958, 3010, 3009
2902, 2958, 2959, 3011, 3010
2903, 2959, 2960, 3012, 3011
2904, 2960, 2961, 3013, 3012
2905, 2961, 2962, 3014, 3013
2906, 2962, 2963, 3015, 3014
2907, 2963, 2964, 3016, 3015
2908, 2965, 2966, 3018, 3017
2909, 2966, 2967, 3019, 3018
2910, 2967, 2968, 3020, 3019
2911, 2968, 2969, 3021, 3020
2912, 2969, 2970, 3022, 3021
2913, 2970, 2971, 3023, 3022
2914, 2971, 2972, 3024, 3023
2915, 2972, 2973, 3025, 3024
2916, 2973, 2974, 3026, 3025
2917, 2974, 2975, 3027, 3026
2918, 2975, 2976, 3028, 3027
2919, 2976, 2977, 3029, 3028
2920, 2977, 2978, 3030, 3029
2921, 2978, 2979, 3031, 3030
2922, 2979, 2980, 3032, 3031
2923, 2980, 2981, 3033, 3032
2924, 2981, 2982, 3034, 3033
2925, 2982, 2983, 3035, 3034
2926, 2983, 2984, 3036, 3035
2927, 2984, 2985, 3037, 3036
2928, 2985, 2986, 3038, 3037
2929, 2986, 2987, 3039, 3038
2930, 2987, 2988, 3040, 3039
2931, 2988, 2989, 3041, 3040
2932, 2989, 2990, 3042, 3041
2933, 2990, 2991, 3043, 3042
2934, 2991, 2992, 3044, 3043
2935, 2992, 2993, 3045, 3044
2936, 2993, 2994, 3046, 3045
2937, 2994, 2995, 3047, 3046
2938, 2995, 2996, 3048, 3047
2939, 2996, 2997, 3049, 3048
2940, 2997, 2998, 3050, 3049
2941, 2998, 2999, 3051, 3050
2942, 2999, 3000, 3052, 3051
2943, 3000, 3001, 3053, 3052
2944, 3001, 3002, 3054, 3053
2945, 3002, 3003, 3055, 3054
2946, 3003, 3004, 3056, 3055
2947, 3004, 3005, 3057, 3056
2948, 3005, 3006, 3058, 3057
2949, 3006, 3007, 3059, 3058
2950, 3007, 3008, 3060, 3059
2951, 3008, 3009, 3061, 3060
2952, 3009, 3010, 3062, 3061
2953, 3010, 3011, 3063, 3062
2954, 3011, 3012, 3064, 3063
2955, 3012, 3013, 3065, 3064
2956, 3013, 3014, 3066, 3065
2957, 3014, 3015, 3067, 3066
2958, 3015, 3016, 3068, 3067
2959, 3017, 3018, 3070, 3069
2960, 3018, 3019, 3071, 3070
2961, 3019, 3020, 3072, 3071
2962, 3020, 3021, 3073, 3072
2963, 3021, 3022, 3074, 3073
2964, 3022, 3023, 3075, 3074
2965, 3023, 3024, 3076, 3075
2966, 3024, 3025, 3077, 3076
2967, 3025, 3026, 3078, 3077
2968, 3026, 3027, 3079, 3078
2969, 3027, 3028, 3080, 3079
2970, 3028, 3029, 3081, 3080
2971, 3029, 3030, 3082, 3081
2972, 3030, 3031, 3083, 3082
2973, 3031, 3032, 3084, 3083
2974, 3032, 3033, 3085, 3084
2975, 3033, 3034, 3086, 3085
2976, 3034, 3035, 3087, 3086
2977, 3035, 3036, 3088, 3087
2978, 3036, 3037, 3089, 3088
2979, 3037, 3038, 3090, 3089
2980, 3038, 3039, 3091, 3090
2981, 3039, 3040, 3092, 3091
2982, 3040, 3041, 3093, 3092
2983, 3041, 3042, 3094, 3093
2984, 3042, 3043, 3095, 3094
2985, 3043, 3044, 3096, 3095
2986, 3044, 3045, 3097, 3096
2987, 3045, 3046, 3098, 3097
2988, 3046, 3047, 3099, 3098
2989, 3047, 3048, 3100, 3099
2990, 3048, 3049, 3101, 3100
2991, 3049, 3050, 3102, 3101
2992, 3050, 3051, 3103, 3102
2993, 3051, 3052, 3104, 3103
2994, 3052, 3053, 3105, 3104
2995, 3053, 3054, 3106, 3105
2996, 3054, 3055, 3107, 3106
2997, 3055, 3056, 3108, 3107
2998, 3056, 3057, 3109, 3108
2999, 3057, 3058, 3110, 3109
3000, 3058, 3059, 3111, 3110
3001, 3059, 3060, 3112, 3111
3002, 3060, 3061, 3113, 3112
3003, 3061, 3062, 3114, 3113
3004, 3062, 3063, 3115, 3114
3005, 3063, 3064, 3116, 3115
3006, 3064, 3065, 3117, 3116
3007, 3065, 3066, 3118, 3117
3008, 3066, 3067, 3119, 3118
3009, 3067, 3068, 3120, 3119
3010, 3069, 3070, 3122, 3121
3011, 3070, 3071, 3123, 3122
3012, 3071, 3072, 3124, 3123
3013, 3072, 3073, 3125, 3124
3014, 3073, 3074, 3126, 3125
3015, 3074, 3075, 3127, 3126
3016, 3075, 3076, 3128, 3127
3017, 3076, 3077, 3129, 3128
3018, 3077, 3078, 3130, 3129
3019, 3078, 3079, 3131, 3130
3020, 3079, 3080, 3132, 3131
3021, 3080, 3081, 3133, 3132
3022, 3081, 3082, 3134, 3133
3023, 3082, 3083, 3135, 3134
3024, 3083, 3084, 3136, 3135
3025, 3084, 3085, 3137, 3136
3026, 3085, 3086, 3138, 3137
3027, 3086, 3087, 3139, 3138
3028, 3087, 3088, 3140, 3139
3029, 3088, 3089, 3141, 3140
3030, 3089, 3090, 3142, 3141
3031, 3090, 3091, 3143, 3142
3032, 3091, 3092, 3144, 3143
3033, 3092, 3093, 3145, 3144
3034, 3093, 3094, 3146, 3145
3035, 3094, 3095, 3147, 3146
3036, 3095, 3096, 3148, 3147
3037, 3096, 3097, 3149, 3148
3038, 3097, 3098, 3150, 3149
3039, 3098, 3099, 3151, 3150
3040, 3099, 3100, 3152, 3151
3041, 3100, 3101, 3153, 3152
3042, 3101, 3102, 3154, 3153
3043, 3102, 3103, 3155, 3154
3044, 3103, 3104, 3156, 3155
3045, 3104, 3105, 3157, 3156
3046, 3105, 3106, 3158, 3157
3047, 3106, 3107, 3159, 3158
3048, 3107, 3108, 3160, 3159
3049, 3108, 3109, 3161, 3160
3050, 3109, 3110, 3162, 3161
3051, 3110, 3111, 3163, 3162
3052, 3111, 3112, 3164, 3163
3053, 3112, 3113, 3165, 3164
3054, 3113, 3114, 3166, 3165
3055, 3114, 3115, 3167, 3166
3056, 3115, 3116, 3168, 3167
3057, 3116, 3117, 3169, 3168
3058, 3117, 3118, 3170, 3169
3059, 3118, 3119, 3171, 3170
3060, 3119, 3120, 3172, 3171
3061, 3121, 3122, 3174, 3173
3062, 3122, 3123, 3175, 3174
3063, 3123, 3124, 3176, 3175
3064, 3124, 3125, 3177, 3176
3065, 3125, 3126, 3178, 3177
3066, 3126, 3127, 3179, 3178
3067, 3127, 3128, 3180, 3179
3068, 3128, 3129, 3181, 3180
3069, 3129, 3130, 3182, 3181
3070, 3130, 3131, 3183, 3182
3071, 3131, 3132, 3184, 3183
3072, 3132, 3133, 3185, 3184
3073, 3133, 3134, 3186, 3185
3074, 3134, 3135, 3187, 3186
3075, 3135, 3136, 3188, 3187
3076, 3136, 3137, 3189, 3188
3077, 3137, 3138, 3190, 3189
3078, 3138, 3139, 3191, 3190
3079, 3139, 3140, 3192, 3191
3080, 3140, 3141, 3193, 3192
3081, 3141, 3142, 3194, 3193
3082, 3142, 3143, 3195, 3194
3083, 3143, 3144, 3196, 3195
3084, 3144, 3145, 3197, 3196
3085, 3145, 3146, 3198, 3197
3086, 3146, 3147, 3199, 3198
3087, 3147, 3148, 3200, 3199
3088, 3148, 3149, 3201, 3200
3089, 3149, 3150, 3202, 3201
3090, 3150, 3151, 3203, 3202
3091, 3151, 3152, 3204, 3203
3092, 3152, 3153, 3205, 3204
3093, 3153, 3154, 3206, 3205
3094, 3154, 3155, 3207, 3206
3095, 3155, 3156, 3208, 3207
3096, 3156, 3157, 3209, 3208
3097, 3157, 3158, 3210, 3209
3098, 3158, 3159, 3211, 3210
3099, 3159, 3160, 3212, 3211
3100, 3160, 3161, 3213, 3212
3101, 3161, 3162, 3214, 3213
3102, 3162, 3163, 3215, 3214
3103, 3163, 3164, 3216, 3215
3104, 3164, 3165, 3217, 3216
3105, 3165, 3166, 3218, 3217
3106, 3166, 3167, 3219, 3218
3107, 3167, 3168, 3220, 3219
3108, 3168, 3169, 3221, 3220
3109, 3169, 3170, 3222, 3221
3110, 3170, 3171, 3223, 3222
3111, 3171, 3172, 3224, 3223
3112, 3173, 3174, 3226, 3225
3113, 3174, 3175, 3227, 3226
3114, 3175, 3176, 3228, 3227
3115, 3176, 3177, 3229, 3228
3116, 3177, 3178, 3230, 3229
3117, 3178, 3179, 3231, 3230
3118, 3179, 3180, 3232, 3231
3119, 3180, 3181, 3233, 3232
3120, 3181, 3182, 3234, 3233
3121, 3182, 3183, 3235, 3234
3122, 3183, 3184, 3236, 3235
3123, 3184, 3185, 3237, 3236
3124, 3185, 3186, 3238, 3237
3125, 3186, 3187, 3239, 3238
3126, 3187, 3188, 3240, 3239
3127, 3188, 3189, 3241, 3240
3128, 3189, 3190, 3242, 3241
3129, 3190, 3191, 3243, 3242
3130, 3191, 3192, 3244, 3243
3131, 3192, 3193, 3245, 3244
3132, 3193, 3194, 3246, 3245
3133, 3194, 3195, 3247, 3246
3134, 3195, 3196, 3248, 3247
3135, 3196, 3197, 3249, 3248
3136, 3197, 3198, 3250, 3249
3137, 3198, 3199, 3251, 3250
3138, 3199, 3200, 3252, 3251
3139, 3200, 3201, 3253, 3252
3140, 3201, 3202, 3254, 3253
3141, 3202, 3203, 3255, 3254
3142, 3203, 3204, 3256, 3255
3143, 3204, 3205, 3257, 3256
3144, 3205, 3206, 3258, 3257
3145, 3206, 3207, 3259, 3258
3146, 3207, 3208, 3260, 3259
3147, 3208, 3209, 3261, 3260
3148, 3209, 3210, 3262, 3261
3149, 3210, 3211, 3263, 3262
3150, 3211, 3212, 3264, 3263
3151, 3212, 3213, 3265, 3264
3152, 3213, 3214, 3266, 3265
3153, 3214, 3215, 3267, 3266
3154, 3215, 3216, 3268, 3267
3155, 3216, 3217, 3269, 3268
3156, 3217, 3218, 3270, 3269
3157, 3218, 3219, 3271, 3270
3158, 3219, 3220, 3272, 3271
3159, 3220, 3221, 3273, 3272
3160, 3221, 3222, 3274, 3273
3161, 3222, 3223, 3275, 3274
3162, 3223, 3224, 3276, 3275
3163, 3225, 3226, 3278, 3277
3164, 3226, 3227, 3279, 3278
3165, 3227, 3228, 3280, 3279
3166, 3228, 3229, 3281, 3280
3167, 3229, 3230, 3282, 3281
3168, 3230, 3231, 3283, 3282
3169, 3231, 3232, 3284, 3283
3170, 3232, 3233, 3285, 3284
3171, 3233, 3234, 3286, 3285
3172, 3234, 3235, 3287, 3286
3173, 3235, 3236, 3288, 3287
3174, 3236, 3237, 3289, 3288
3175, 3237, 3238, 3290, 3289
3176, 3238, 3239, 3291, 3290
3177, 3239, 3240, 3292, 3291
3178, 3240, 3241, 3293, 3292
3179, 3241, 3242, 3294, 3293
3180, 3242, 3243, 3295, 3294
3181, 3243, 3244, 3296, 3295
3182, 3244, 3245, 3297, 3296
3183, 3245, 3246, 3298, 3297
3184, 3246, 3247, 3299, 3298
3185, 3247, 3248, 3300, 3299
3186, 3248, 3249, 3301, 3300
3187, 3249, 3250, 3302, 3301
3188, 3250, 3251, 3303, 3302
3189, 3251, 3252, 3304, 3303
3190, 3252, 3253, 3305, 3304
3191, 3253, 3254, 3306, 3305
3192, 3254, 3255, 3307, 3306
3193, 3255, 3256, 3308, 3307
3194, 3256, 3257, 3309, 3308
3195, 3257, 3258, 3310, 3309
3196, 3258, 3259, 3311, 3310
3197, 3259, 3260, 3312, 3311
3198, 3260, 3261, 3313, 3312
3199, 3261, 3262, 3314, 3313
3200, 3262, 3263, 3315, 3314
3201, 3263, 3264, 3316, 3315
3202, 3264, 3265, 3317, 3316
3203, 3265, 3266, 3318, 3317
3204, 3266, 3267, 3319, 3318
3205, 3267, 3268, 3320, 3319
3206, 3268, 3269, 3321, 3320
3207, 3269, 3270, 3322, 3321
3208, 3270, 3271, 3323, 3322
3209, 3271, 3272, 3324, 3323
3210, 3272, 3273, 3325, 3324
3211, 3273, 3274, 3326, 3325
3212, 3274, 3275, 3327, 3326
3213, 3275, 3276, 3328, 3327
3214, 3277, 3278, 3330, 3329
3215, 3278, 3279, 3331, 3330
3216, 3279, 3280, 3332, 3331
3217, 3280, 3281, 3333, 3332
3218, 3281, 3282, 3334, 3333
3219, 3282, 3283, 3335, 3334
3220, 3283, 3284, 3336, 3335
3221, 3284, 3285, 3337, 3336
3222, 3285, 3286, 3338, 3337
3223, 3286, 3287, 3339, 3338
3224, 3287, 3288, 3340, 3339
3225, 3288, 3289, 3341, 3340
3226, 3289, 3290, 3342, 3341
3227, 3290, 3291, 3343, 3342
3228, 3291, 3292, 3344, 3343
3229, 3292, 3293, 3345, 3344
3230, 3293, 3294, 3346, 3345
3231, 3294, 3295, 3347, 3346
3232, 3295, 3296, 3348, 3347
3233, 3296, 3297, 3349, 3348
3234, 3297, 3298, 3350, 3349
3235, 3298, 3299, 3351, 3350
3236, 3299, 3300, 3352, 3351
3237, 3300, 3301, 3353, 3352
3238, 3301, 3302, 3354, 3353
3239, 3302, 3303, 3355, 3354
3240, 3303, 3304, 3356, 3355
3241, 3304, 3305, 3357, 3356
3242, 3305, 3306, 3358, 3357
3243, 3306, 3307, 3359, 3358
3244, 3307, 3308, 3360, 3359
3245, 3308, 3309, 3361, 3360
3246, 3309, 3310, 3362, 3361
3247, 3310, 3311, 3363, 3362
3248, 3311, 3312, 3364, 3363
3249, 3312, 3313, 3365, 3364
3250, 3313, 3314, 3366, 3365
3251, 3314, 3315, 3367, 3366
3252, 3315, 3316, 3368, 3367
3253, 3316, 3317, 3369, 3368
3254, 3317, 3318, 3370, 3369
3255, 3318, 3319, 3371, 3370
3256, 3319, 3320, 3372, 3371
3257, 3320, 3321, 3373, 3372
3258, 3321, 3322, 3374, 3373
3259, 3322, 3323, 3375, 3374
3260, 3323, 3324, 3376, 3375
3261, 3324, 3325, 3377, 3376
3262, 3325, 3326, 3378, 3377
3263, 3326, 3327, 3379, 3378
3264, 3327, 3328, 3380, 3379
3265, 3329, 3330, 3382, 3381
3266, 3330, 3331, 3383, 3382
3267, 3331, 3332, 3384, 3383
3268, 3332, 3333, 3385, 3384
3269, 3333, 3334, 3386, 3385
3270, 3334, 3335, 3387, 3386
3271, 3335, 3336, 3388, 3387
3272, 3336, 3337, 3389, 3388
3273, 3337, 3338, 3390, 3389
3274, 3338, 3339, 3391, 3390
3275, 3339, 3340, 3392, 3391
3276, 3340, 3341, 3393, 3392
3277, 3341, 3342, 3394, 3393
3278, 3342, 3343, 3395, 3394
3279, 3343, 3344, 3396, 3395
3280, 3344, 3345, 3397, 3396
3281, 3345, 3346, 3398, 3397
3282, 3346, 3347, 3399, 3398
3283, 3347, 3348, 3400, 3399
3284, 3348, 3349, 3401, 3400
3285, 3349, 3350, 3402, 3401
3286, 3350, 3351, 3403, 3402
3287, 3351, 3352, 3404, 3403
3288, 3352, 3353, 3405, 3404
3289, 3353, 3354, 3406, 3405
3290, 3354, 3355, 3407, 3406
3291, 3355, 3356, 3408, 3407
3292, 3356, 3357, 3409, 3408
3293, 3357, 3358, 3410, 3409
3294, 3358, 3359, 3411, 3410
3295, 3359, 3360, 3412, 3411
3296, 3360, 3361, 3413, 3412
3297, 3361, 3362, 3414, 3413
3298, 3362, 3363, 3415, 3414
3299, 3363, 3364, 3416, 3415
3300, 3364, 3365, 3417, 3416
3301, 3365, 3366, 3418, 3417
3302, 3366, 3367, 3419, 3418
3303, 3367, 3368, 3420, 3419
3304, 3368, 3369, 3421, 3420
3305, 3369, 3370, 3422, 3421
3306, 3370, 3371, 3423, 3422
3307, 3371, 3372, 3424, 3423
3308, 3372, 3373, 3425, 3424
3309, 3373, 3374, 3426, 3425
3310, 3374, 3375, 3427, 3426
3311, 3375, 3376, 3428, 3427
3312, 3376, 3377, 3429, 3428
3313, 3377, 3378, 3430, 3429
3314, 3378, 3379, 3431, 3430
3315, 3379, 3380, 3432, 3431
3316, 3381, 3382, 3434, 3433
3317, 3382, 3383, 3435, 3434
3318, 3383, 3384, 3436, 3435
3319, 3384, 3385, 3437, 3436
3320, 3385, 3386, 3438, 3437
3321, 3386, 3387, 3439, 3438
3322, 3387, 3388, 3440, 3439
3323, 3388, 3389, 3441, 3440
3324, 3389, 3390, 3442, 3441
3325, 3390, 3391, 3443, 3442
3326, 3391, 3392, 3444, 3443
3327, 3392, 3393, 3445, 3444
3328, 3393, 3394, 3446, 3445
3329, 3394, 3395, 3447, 3446
3330, 3395, 3396, 3448, 3447
3331, 3396, 3397, 3449, 3448
3332, 3397, 3398, 3450, 3449
3333, 3398, 3399, 3451, 3450
3334, 3399, 3400, 3452, 3451
3335, 3400, 3401, 3453, 3452
3336, 3401, 3402, 3454, 3453
3337, 3402, 3403, 3455, 3454
3338, 3403, 3404, 3456, 3455
3339, 3404, 3405, 3457, 3456
3340, 3405, 3406, 3458, 3457
3341, 3406, 3407, 3459, 3458
3342, 3407, 3408, 3460, 3459
3343, 3408, 3409, 3461, 3460
3344, 3409, 3410, 3462, 3461
3345, 3410, 3411, 3463, 3462
3346, 3411, 3412, 3464, 3463
3347, 3412, 3413, 3465, 3464
3348, 3413, 3414, 3466, 3465
3349, 3414, 3415, 3467, 3466
3350, 3415, 3416, 3468, 3467
3351, 3416, 3417, 3469, 3468
3352, 3417, 3418, 3470, 3469
3353, 3418, 3419, 3471, 3470
3354, 3419, 3420, 3472, 3471
3355, 3420, 3421, 3473, 3472
3356, 3421, 3422, 3474, 3473
3357, 3422, 3423, 3475, 3474
3358, 3423, 3424, 3476, 3475
3359, 3424, 3425, 3477, 3476
3360, 3425, 3426, 3478, 3477
3361, 3426, 3427, 3479, 3478
3362, 3427, 3428, 3480, 3479
3363, 3428, 3429, 3481, 3480
3364, 3429, 3430, 3482, 3481
3365, 3430, 3431, 3483, 3482
3366, 3431, 3432, 3484, 3483
3367, 3433, 3434, 3486, 3485
3368, 3434, 3435, 3487, 3486
3369, 3435, 3436, 3488, 3487
3370, 3436, 3437, 3489, 3488
3371, 3437, 3438, 3490, 3489
3372, 3438, 3439, 3491, 3490
3373, 3439, 3440, 3492, 3491
3374, 3440, 3441, 3493, 3492
3375, 3441, 3442, 3494, 3493
3376, 3442, 3443, 3495, 3494
3377, 3443, 3444, 3496, 3495
3378, 3444, 3445, 3497, 3496
3379, 3445, 3446, 3498, 3497
3380, 3446, 3447, 3499, 3498
3381, 3447, 3448, 3500, 3499
3382, 3448, 3449, 3501, 3500
3383, 3449, 3450, 3502, 3501
3384, 3450, 3451, 3503, 3502
3385, 3451, 3452, 3504, 3503
3386, 3452, 3453, 3505, 3504
3387, 3453, 3454, 3506, 3505
3388, 3454, 3455, 3507, 3506
3389, 3455, 3456, 3508, 3507
3390, 3456, 3457, 3509, 3508
3391, 3457, 3458, 3510, 3509
3392, 3458, 3459, 3511, 3510
3393, 3459, 3460, 3512, 3511
3394, 3460, 3461, 3513, 3512
3395, 3461, 3462, 3514, 3513
3396, 3462, 3463, 3515, 3514
3397, 3463, 3464, 3516, 3515
3398, 3464, 3465, 3517, 3516
3399, 3465, 3466, 3518, 3517
3400, 3466, 3467, 3519, 3518
3401, 3467, 3468, 3520, 3519
3402, 3468, 3469, 3521, 3520
3403, 3469, 3470, 3522, 3521
3404, 3470, 3471, 3523, 3522
3405, 3471, 3472, 3524, 3523
3406, 3472, 3473, 3525, 3524
3407, 3473, 3474, 3526, 3525
3408, 3474, 3475, 3527, 3526
3409, 3475, 3476, 3528, 3527
3410, 3476, 3477, 3529, 3528
3411, 3477, 3478, 3530, 3529
3412, 3478, 3479, 3531, 3530
3413, 3479, 3480, 3532, 3531
3414, 3480, 3481, 3533, 3532
3415, 3481, 3482, 3534, 3533
3416, 3482, 3483, 3535, 3534
3417, 3483, 3484, 3536, 3535
3418, 3485, 3486, 3538, 3537
3419, 3486, 3487, 3539, 3538
3420, 3487, 3488, 3540, 3539
3421, 3488, 3489, 3541, 3540
3422, 3489, 3490, 3542, 3541
3423, 3490, 3491, 3543, 3542
3424, 3491, 3492, 3544, 3543
3425, 3492, 3493, 3545, 3544
3426, 3493, 3494, 3546, 3545
3427, 3494, 3495, 3547, 3546
3428, 3495, 3496, 3548, 3547
3429, 3496, 3497, 3549, 3548
3430, 3497, 3498, 3550, 3549
3431, 3498, 3499, 3551, 3550
3432, 3499, 3500, 3552, 3551
3433, 3500, 3501, 3553, 3552
3434, 3501, 3502, 3554, 3553
3435, 3502, 3503, 3555, 3554
3436, 3503, 3504, 3556, 3555
3437, 3504, 3505, 3557, 3556
3438, 3505, 3506, 3558, 3557
3439, 3506, 3507, 3559, 3558
3440, 3507, 3508, 3560, 3559
3441, 3508, 3509, 3561, 3560
3442, 3509, 3510, 3562, 3561
3443, 3510, 3511, 3563, 3562
3444, 3511, 3512, 3564, 3563
3445, 3512, 3513, 3565, 3564
3446, 3513, 3514, 3566, 3565
3447, 3514, 3515, 3567, 3566
3448, 3515, 3516, 3568, 3567
3449, 3516, 3517, 3569, 3568
3450, 3517, 3518, 3570, 3569
3451, 3518, 3519, 3571, 3570
3452, 3519, 3520, 3572, 3571
3453, 3520, 3521, 3573, 3572
3454, 3521, 3522, 3574, 3573
3455, 3522, 3523, 3575, 3574
3456, 3523, 3524, 3576, 3575
3457, 3524, 3525, 3577, 3576
3458, 3525, 3526, 3578, 3577
3459, 3526, 3527, 3579, 3578
3460, 3527, 3528, 3580, 3579
3461, 3528, 3529, 3581, 3580
3462, 3529, 3530, 3582, 3581
3463, 3530, 3531, 3583, 3582
3464, 3531, 3532, 3584, 3583
3465, 3532, 3533, 3585, 3584
3466, 3533, 3534, 3586, 3585
3467, 3534, 3535, 3587, 3586
3468, 3535, 3536, 3588, 3587
3469, 3537, 3538, 3590, 3589
3470, 3538, 3539, 3591, 3590
3471, 3539, 3540, 3592, 3591
3472, 3540, 3541, 3593, 3592
3473, 3541, 3542, 3594, 3593
3474, 3542, 3543, 3595, 3594
3475, 3543, 3544, 3596, 3595
3476, 3544, 3545, 3597, 3596
3477, 3545, 3546, 3598, 3597
3478, 3546, 3547, 3599, 3598
3479, 3547, 3548, 3600, 3599
3480, 3548, 3549, 3601, 3600
3481, 3549, 3550, 3602, 3601
3482, 3550, 3551, 3603, 3602
3483, 3551, 3552, 3604, 3603
3484, 3552, 3553, 3605, 3604
3485, 3553, 3554, 3606, 3605
3486, 3554, 3555, 3607, 3606
3487, 3555, 3556, 3608, 3607
3488, 3556, 3557, 3609, 3608
3489, 3557, 3558, 3610, 3609
3490, 3558, 3559, 3611, 3610
3491, 3559, 3560, 3612, 3611
3492, 3560, 3561, 3613, 3612
3493, 3561, 3562, 3614, 3613
3494, 3562, 3563, 3615, 3614
3495, 3563, 3564, 3616, 3615
3496, 3564, 3565, 3617, 3616
3497, 3565, 3566, 3618, 3617
3498, 3566, 3567, 3619, 3618
3499, 3567, 3568, 3620, 3619
3500, 3568, 3569, 3621, 3620
3501, 3569, 3570, 3622, 3621
3502, 3570, 3571, 3623, 3622
3503, 3571, 3572, 3624, 3623
3504, 3572, 3573, 3625, 3624
3505, 3573, 3574, 3626, 3625
3506, 3574, 3575, 3627, 3626
3507, 3575, 3576, 3628, 3627
3508, 3576, 3577, 3629, 3628
3509, 3577, 3578, 3630, 3629
3510, 3578, 3579, 3631, 3630
3511, 3579, 3580, 3632, 3631
3512, 3580, 3581, 3633, 3632
3513, 3581, 3582, 3634, 3633
3514, 3582, 3583, 3635, 3634
3515, 3583, 3584, 3636, 3635
3516, 3584, 3585, 3637, 3636
3517, 3585, 3586, 3638, 3637
3518, 3586, 3587, 3639, 3638
3519, 3587, 3588, 3640, 3639
3520, 3589, 3590, 3642, 3641
3521, 3590, 3591, 3643, 3642
3522, 3591, 3592, 3644, 3643
3523, 3592, 3593, 3645, 3644
3524, 3593, 3594, 3646, 3645
3525, 3594, 3595, 3647, 3646
3526, 3595, 3596, 3648, 3647
3527, 3596, 3597, 3649, 3648
3528, 3597, 3598, 3650, 3649
3529, 3598, 3599, 3651, 3650
3530, 3599, 3600, 3652, 3651
3531, 3600, 3601, 3653, 3652
3532, 3601, 3602, 3654, 3653
3533, 3602, 3603, 3655, 3654
3534, 3603, 3604, 3656, 3655
3535, 3604, 3605, 3657, 3656
3536, 3605, 3606, 3658, 3657
3537, 3606, 3607, 3659, 3658
3538, 3607, 3608, 3660, 3659
3539, 3608, 3609, 3661, 3660
3540, 3609, 3610, 3662, 3661
3541, 3610, 3611, 3663, 3662
3542, 3611, 3612, 3664, 3663
3543, 3612, 3613, 3665, 3664
3544, 3613, 3614, 3666, 3665
3545, 3614, 3615, 3667, 3666
3546, 3615, 3616, 3668, 3667
3547, 3616, 3617, 3669, 3668
3548, 3617, 3618, 3670, 3669
3549, 3618, 3619, 3671, 3670
3550, 3619, 3620, 3672, 3671
3551, 3620, 3621, 3673, 3672
3552, 3621, 3622, 3674, 3673
3553, 3622, 3623, 3675, 3674
3554, 3623, 3624, 3676, 3675
3555, 3624, 3625, 3677, 3676
3556, 3625, 3626, 3678, 3677
3557, 3626, 3627, 3679, 3678
3558, 3627, 3628, 3680, 3679
3559, 3628, 3629, 3681, 3680
3560, 3629, 3630, 3682, 3681
3561, 3630, 3631, 3683, 3682
3562, 3631, 3632, 3684, 3683
3563, 3632, 3633, 3685, 3684
3564, 3633, 3634, 3686, 3685
3565, 3634, 3635, 3687, 3686
3566, 3635, 3636, 3688, 3687
3567, 3636, 3637, 3689, 3688
3568, 3637, 3638, 3690, 3689
3569, 3638, 3639, 3691, 3690
3570, 3639, 3640, 3692, 3691
3571, 3641, 3642, 3694, 3693
3572, 3642, 3643, 3695, 3694
3573, 3643, 3644, 3696, 3695
3574, 3644, 3645, 3697, 3696
3575, 3645, 3646, 3698, 3697
3576, 3646, 3647, 3699, 3698
3577, 3647, 3648, 3700, 3699
3578, 3648, 3649, 3701, 3700
3579, 3649, 3650, 3702, 3701
3580, 3650, 3651, 3703, 3702
3581, 3651, 3652, 3704, 3703
3582, 3652, 3653, 3705, 3704
3583, 3653, 3654, 3706, 3705
3584, 3654, 3655, 3707, 3706
3585, 3655, 3656, 3708, 3707
3586, 3656, 3657, 3709, 3708
3587, 3657, 3658, 3710, 3709
3588, 3658, 3659, 3711, 3710
3589, 3659, 3660, 3712, 3711
3590, 3660, 3661, 3713, 3712
3591, 3661, 3662, 3714, 3713
3592, 3662, 3663, 3715, 3714
3593, 3663, 3664, 3716, 3715
3594, 3664, 3665, 3717, 3716
3595, 3665, 3666, 3718, 3717
3596, 3666, 3667, 3719, 3718
3597, 3667, 3668, 3720, 3719
3598, 3668, 3669, 3721, 3720
3599, 3669, 3670, 3722, 3721
3600, 3670, 3671, 3723, 3722
3601, 3671, 3672, 3724, 3723
3602, 3672, 3673, 3725, 3724
3603, 3673, 3674, 3726, 3725
3604, 3674, 3675, 3727, 3726
3605, 3675, 3676, 3728, 3727
3606, 3676, 3677, 3729, 3728
3607, 3677, 3678, 3730, 3729
3608, 3678, 3679, 3731, 3730
3609, 3679, 3680, 3732, 3731
3610, 3680, 3681, 3733, 3732
3611, 3681, 3682, 3734, 3733
3612, 3682, 3683, 3735, 3734
3613, 3683, 3684, 3736, 3735
3614, 3684, 3685, 3737, 3736
3615, 3685, 3686, 3738, 3737
3616, 3686, 3687, 3739, 3738
3617, 3687, 3688, 3740, 3739
3618, 3688, 3689, 3741, 3740
3619, 3689, 3690, 3742, 3741
3620, 3690, 3691, 3743, 3742
3621, 3691, 3692, 3744, 3743
3622, 3693, 3694, 3746, 3745
3623, 3694, 3695, 3747, 3746
3624, 3695, 3696, 3748, 3747
3625, 3696, 3697, 3749, 3748
3626, 3697, 3698, 3750, 3749
3627, 3698, 3699, 3751, 3750
3628, 3699, 3700, 3752, 3751
3629, 3700, 3701, 3753, 3752
3630, 3701, 3702, 3754, 3753
3631, 3702, 3703, 3755, 3754
3632, 3703, 3704, 3756, 3755
3633, 3704, 3705, 3757, 3756
3634, 3705, 3706, 3758, 3757
3635, 3706, 3707, 3759, 3758
3636, 3707, 3708, 3760, 3759
3637, 3708, 3709, 3761, 3760
3638, 3709, 3710, 3762, 3761
3639, 3710, 3711, 3763, 3762
3640, 3711, 3712, 3764, 3763
3641, 3712, 3713, 3765, 3764
3642, 3713, 3714, 3766, 3765
3643, 3714, 3715, 3767, 3766
3644, 3715, 3716, 3768, 3767
3645, 3716, 3717, 3769, 3768
3646, 3717, 3718, 3770, 3769
3647, 3718, 3719, 3771, 3770
3648, 3719, 3720, 3772, 3771
3649, 3720, 3721, 3773, 3772
3650, 3721, 3722, 3774, 3773
3651, 3722, 3723, 3775, 3774
3652, 3723, 3724, 3776, 3775
3653, 3724, 3725, 3777, 3776
3654, 3725, 3726, 3778, 3777
3655, 3726, 3727, 3779, 3778
3656, 3727, 3728, 3780, 3779
3657, 3728, 3729, 3781, 3780
3658, 3729, 3730, 3782, 3781
3659, 3730, 3731, 3783, 3782
3660, 3731, 3732, 3784, 3783
3661, 3732, 3733, 3785, 3784
3662, 3733, 3734, 3786, 3785
3663, 3734, 3735, 3787, 3786
3664, 3735, 3736, 3788, 3787
3665, 3736, 3737, 3789, 3788
3666, 3737, 3738, 3790, 3789
3667, 3738, 3739, 3791, 3790
3668, 3739, 3740, 3792, 3791
3669, 3740, 3741, 3793, 3792
3670, 3741, 3742, 3794, 3793
3671, 3742, 3743, 3795, 3794
3672, 3743, 3744, 3796, 3795
3673, 3745, 3746, 3798, 3797
3674, 3746, 3747, 3799, 3798
3675, 3747, 3748, 3800, 3799
3676, 3748, 3749, 3801, 3800
3677, 3749, 3750, 3802, 3801
3678, 3750, 3751, 3803, 3802
3679, 3751, 3752, 3804, 3803
3680, 3752, 3753, 3805, 3804
3681, 3753, 3754, 3806, 3805
3682, 3754, 3755, 3807, 3806
3683, 3755, 3756, 3808, 3807
3684, 3756, 3757, 3809, 3808
3685, 3757, 3758, 3810, 3809
3686, 3758, 3759, 3811, 3810
3687, 3759, 3760, 3812, 3811
3688, 3760, 3761, 3813, 3812
3689, 3761, 3762, 3814, 3813
3690, 3762, 3763, 3815, 3814
3691, 3763, 3764, 3816, 3815
3692, 3764, 3765, 3817, 3816
3693, 3765, 3766, 3818, 3817
3694, 3766, 3767, 3819, 3818
3695, 3767, 3768, 3820, 3819
3696, 3768, 3769, 3821, 3820
3697, 3769, 3770, 3822, 3821
3698, 3770, 3771, 3823, 3822
3699, 3771, 3772, 3824, 3823
3700, 3772, 3773, 3825, 3824
3701, 3773, 3774, 3826, 3825
3702, 3774, 3775, 3827, 3826
3703, 3775, 3776, 3828, 3827
3704, 3776, 3777, 3829, 3828
3705, 3777, 3778, 3830, 3829
3706, 3778, 3779, 3831, 3830
3707, 3779, 3780, 3832, 3831
3708, 3780, 3781, 3833, 3832
3709, 3781, 3782, 3834, 3833
3710, 3782, 3783, 3835, 3834
3711, 3783, 3784, 3836, 3835
3712, 3784, 3785, 3837, 3836
3713, 3785, 3786, 3838, 3837
3714, 3786, 3787, 3839, 3838
3715, 3787, 3788, 3840, 3839
3716, 3788, 3789, 3841, 3840
3717, 3789, 3790, 3842, 3841
3718, 3790, 3791, 3843, 3842
3719, 3791, 3792, 3844, 3843
3720, 3792, 3793, 3845, 3844
3721, 3793, 3794, 3846, 3845
3722, 3794, 3795, 3847, 3846
3723, 3795, 3796, 3848, 3847
3724, 3797, 3798, 3850, 3849
3725, 3798, 3799, 3851, 3850
3726, 3799, 3800, 3852, 3851
3727, 3800, 3801, 3853, 3852
3728, 3801, 3802, 3854, 3853
3729, 3802, 3803, 3855, 3854
3730, 3803, 3804, 3856, 3855
3731, 3804, 3805, 3857, 3856
3732, 3805, 3806, 3858, 3857
3733, 3806, 3807, 3859, 3858
3734, 3807, 3808, 3860, 3859
3735, 3808, 3809, 3861, 3860
3736, 3809, 3810, 3862, 3861
3737, 3810, 3811, 3863, 3862
3738, 3811, 3812, 3864, 3863
3739, 3812, 3813, 3865, 3864
3740, 3813, 3814, 3866, 3865
3741, 3814, 3815, 3867, 3866
3742, 3815, 3816, 3868, 3867
3743, 3816, 3817, 3869, 3868
3744, 3817, 3818, 3870, 3869
3745, 3818, 3819, 3871, 3870
3746, 3819, 3820, 3872, 3871
3747, 3820, 3821, 3873, 3872
3748, 3821, 3822, 3874, 3873
3749, 3822, 3823, 3875, 3874
3750, 3823, 3824, 3876, 3875
3751, 3824, 3825, 3877, 3876
3752, 3825, 3826, 3878, 3877
3753, 3826, 3827, 3879, 3878
3754, 3827, 3828, 3880, 3879
3755, 3828, 3829, 3881, 3880
3756, 3829, 3830, 3882, 3881
3757, 3830, 3831, 3883, 3882
3758, 3831, 3832, 3884, 3883
3759, 3832, 3833, 3885, 3884
3760, 3833, 3834, 3886, 3885
3761, 3834, 3835, 3887, 3886
3762, 3835, 3836, 3888, 3887
3763, 3836, 3837, 3889, 3888
3764, 3837, 3838, 3890, 3889
3765, 3838, 3839, 3891, 3890
3766, 3839, 3840, 3892, 3891
3767, 3840, 3841, 3893, 3892
3768, 3841, 3842, 3894, 3893
3769, 3842, 3843, 3895, 3894
3770, 3843, 3844, 3896, 3895
3771, 3844, 3845, 3897, 3896
3772, 3845, 3846, 3898, 3897
3773, 3846, 3847, 3899, 3898
3774, 3847, 3848, 3900, 3899
3775, 3849, 3850, 3902, 3901
3776, 3850, 3851, 3903, 3902
3777, 3851, 3852, 3904, 3903
3778, 3852, 3853, 3905, 3904
3779, 3853, 3854, 3906, 3905
3780, 3854, 3855, 3907, 3906
3781, 3855, 3856, 3908, 3907
3782, 3856, 3857, 3909, 3908
3783, 3857, 3858, 3910, 3909
3784, 3858, 3859, 3911, 3910
3785, 3859, 3860, 3912, 3911
3786, 3860, 3861, 3913, 3912
3787, 3861, 3862, 3914, 3913
3788, 3862, 3863, 3915, 3914
3789, 3863, 3864, 3916, 3915
3790, 3864, 3865, 3917, 3916
3791, 3865, 3866, 3918, 3917
3792, 3866, 3867, 3919, 3918
3793, 3867, 3868, 3920, 3919
3794, 3868, 3869, 3921, 3920
3795, 3869, 3870, 3922, 3921
3796, 3870, 3871, 3923, 3922
3797, 3871, 3872, 3924, 3923
3798, 3872, 3873, 3925, 3924
3799, 3873, 3874, 3926, 3925
3800, 3874, 3875, 3927, 3926
3801, 3875, 3876, 3928, 3927
3802, 3876, 3877, 3929, 3928
3803, 3877, 3878, 3930, 3929
3804, 3878, 3879, 3931, 3930
3805, 3879, 3880, 3932, 3931
3806, 3880, 3881, 3933, 3932
3807, 3881, 3882, 3934, 3933
3808, 3882, 3883, 3935, 3934
3809, 3883, 3884, 3936, 3935
3810, 3884, 3885, 3937, 3936
3811, 3885, 3886, 3938, 3937
3812, 3886, 3887, 3939, 3938
3813, 3887, 3888, 3940, 3939
3814, 3888, 3889, 3941, 3940
3815, 3889, 3890, 3942, 3941
3816, 3890, 3891, 3943, 3942
3817, 3891, 3892, 3944, 3943
3818, 3892, 3893, 3945, 3944
3819, 3893, 3894, 3946, 3945
3820, 3894, 3895, 3947, 3946
3821, 3895, 3896, 3948, 3947
3822, 3896, 3897, 3949, 3948
3823, 3897, 3898, 3950, 3949
3824, 3898, 3899, 3951, 3950
3825, 3899, 3900, 3952, 3951
3826, 3901, 3902, 3954, 3953
3827, 3902, 3903, 3955, 3954
3828, 3903, 3904, 3956, 3955
3829, 3904, 3905, 3957, 3956
3830, 3905, 3906, 3958, 3957
3831, 3906, 3907, 3959, 3958
3832, 3907, 3908, 3960, 3959
3833, 3908, 3909, 3961, 3960
3834, 3909, 3910, 3962, 3961
3835, 3910, 3911, 3963, 3962
3836, 3911, 3912, 3964, 3963
3837, 3912, 3913, 3965, 3964
3838, 3913, 3914, 3966, 3965
3839, 3914, 3915, 3967, 3966
3840, 3915, 3916, 3968, 3967
3841, 3916, 3917, 3969, 3968
3842, 3917, 3918, 3970, 3969
3843, 3918, 3919, 3971, 3970
3844, 3919, 3920, 3972, 3971
3845, 3920, 3921, 3973, 3972
3846, 3921, 3922, 3974, 3973
3847, 3922, 3923, 3975, 3974
3848, 3923, 3924, 3976, 3975
3849, 3924, 3925, 3977, 3976
3850, 3925, 3926, 3978, 3977
3851, 3926, 3927, 3979, 3978
3852, 3927, 3928, 3980, 3979
3853, 3928, 3929, 3981, 3980
3854, 3929, 3930, 3982, 3981
3855, 3930, 3931, 3983, 3982
3856, 3931, 3932, 3984, 3983
3857, 3932, 3933, 3985, 3984
3858, 3933, 3934, 3986, 3985
3859, 3934, 3935, 3987, 3986
3860, 3935, 3936, 3988, 3987
3861, 3936, 3937, 3989, 3988
3862, 3937, 3938, 3990, 3989
3863, 3938, 3939, 3991, 3990
3864, 3939, 3940, 3992, 3991
3865, 3940, 3941, 3993, 3992
3866, 3941, 3942, 3994, 3993
3867, 3942, 3943, 3995, 3994
3868, 3943, 3944, 3996, 3995
3869, 3944, 3945, 3997, 3996
3870, 3945, 3946, 3998, 3997
3871, 3946, 3947, 3999, 3998
3872, 3947, 3948, 4000, 3999
3873, 3948, 3949, 4001, 4000
3874, 3949, 3950, 4002, 4001
3875, 3950, 3951, 4003, 4002
3876, 3951, 3952, 4004, 4003
3877, 3953, 3954, 4006, 4005
3878, 3954, 3955, 4007, 4006
3879, 3955, 3956, 4008, 4007
3880, 3956, 3957, 4009, 4008
3881, 3957, 3958, 4010, 4009
3882, 3958, 3959, 4011, 4010
3883, 3959, 3960, 4012, 4011
3884, 3960, 3961, 4013, 4012
3885, 3961, 3962, 4014, 4013
3886, 3962, 3963, 4015, 4014
3887, 3963, 3964, 4016, 4015
3888, 3964, 3965, 4017, 4016
3889, 3965, 3966, 4018, 4017
3890, 3966, 3967, 4019, 4018
3891, 3967, 3968, 4020, 4019
3892, 3968, 3969, 4021, 4020
3893, 3969, 3970, 4022, 4021
3894, 3970, 3971, 4023, 4022
3895, 3971, 3972, 4024, 4023
3896, 3972, 3973, 4025, 4024
3897, 3973, 3974, 4026, 4025
3898, 3974, 3975, 4027, 4026
3899, 3975, 3976, 4028, 4027
3900, 3976, 3977, 4029, 4028
3901, 3977, 3978, 4030, 4029
3902, 3978, 3979, 4031, 4030
3903, 3979, 3980, 4032, 4031
3904, 3980, 3981, 4033, 4032
3905, 3981, 3982, 4034, 4033
3906, 3982, 3983, 4035, 4034
3907, 3983, 3984, 4036, 4035
3908, 3984, 3985, 4037, 4036
3909, 3985, 3986, 4038, 4037
3910, 3986, 3987, 4039, 4038
3911, 3987, 3988, 4040, 4039
3912, 3988, 3989, 4041, 4040
3913, 3989, 3990, 4042, 4041
3914, 3990, 3991, 4043, 4042
3915, 3991, 3992, 4044, 4043
3916, 3992, 3993, 4045, 4044
3917, 3993, 3994, 4046, 4045
3918, 3994, 3995, 4047, 4046
3919, 3995, 3996, 4048, 4047
3920, 3996, 3997, 4049, 4048
3921, 3997, 3998, 4050, 4049
3922, 3998, 3999, 4051, 4050
3923, 3999, 4000, 4052, 4051
3924, 4000, 4001, 4053, 4052
3925, 4001, 4002, 4054, 4053
3926, 4002, 4003, 4055, 4054
3927, 4003, 4004, 4056, 4055
3928, 4005, 4006, 4058, 4057
3929, 4006, 4007, 4059, 4058
3930, 4007, 4008, 4060, 4059
3931, 4008, 4009, 4061, 4060
3932, 4009, 4010, 4062, 4061
3933, 4010, 4011, 4063, 4062
3934, 4011, 4012, 4064, 4063
3935, 4012, 4013, 4065, 4064
3936, 4013, 4014, 4066, 4065
3937, 4014, 4015, 4067, 4066
3938, 4015, 4016, 4068, 4067
3939, 4016, 4017, 4069, 4068
3940, 4017, 4018, 4070, 4069
3941, 4018, 4019, 4071, 4070
3942, 4019, 4020, 4072, 4071
3943, 4020, 4021, 4073, 4072
3944, 4021, 4022, 4074, 4073
3945, 4022, 4023, 4075, 4074
3946, 4023, 4024, 4076, 4075
3947, 4024, 4025, 4077, 4076
3948, 4025, 4026, 4078, 4077
3949, 4026, 4027, 4079, 4078
3950, 4027, 4028, 4080, 4079
3951, 4028, 4029, 4081, 4080
3952, 4029, 4030, 4082, 4081
3953, 4030, 4031, 4083, 4082
3954, 4031, 4032, 4084, 4083
3955, 4032, 4033, 4085, 4084
3956, 4033, 4034, 4086, 4085
3957, 4034, 4035, 4087, 4086
3958, 4035, 4036, 4088, 4087
3959, 4036, 4037, 4089, 4088
3960, 4037, 4038, 4090, 4089
3961, 4038, 4039, 4091, 4090
3962, 4039, 4040, 4092, 4091
3963, 4040, 4041, 4093, 4092
3964, 4041, 4042, 4094, 4093
3965, 4042, 4043, 4095, 4094
3966, 4043, 4044, 4096, 4095
3967, 4044, 4045, 4097, 4096
3968, 4045, 4046, 4098, 4097
3969, 4046, 4047, 4099, 4098
3970, 4047, 4048, 4100, 4099
3971, 4048, 4049, 4101, 4100
3972, 4049, 4050, 4102, 4101
3973, 4050, 4051, 4103, 4102
3974, 4051, 4052, 4104, 4103
3975, 4052, 4053, 4105, 4104
3976, 4053, 4054, 4106, 4105
3977, 4054, 4055, 4107, 4106
3978, 4055, 4056, 4108, 4107
3979, 4057, 4058, 4110, 4109
3980, 4058, 4059, 4111, 4110
3981, 4059, 4060, 4112, 4111
3982, 4060, 4061, 4113, 4112
3983, 4061, 4062, 4114, 4113
3984, 4062, 4063, 4115, 4114
3985, 4063, 4064, 4116, 4115
3986, 4064, 4065, 4117, 4116
3987, 4065, 4066, 4118, 4117
3988, 4066, 4067, 4119, 4118
3989, 4067, 4068, 4120, 4119
3990, 4068, 4069, 4121, 4120
3991, 4069, 4070, 4122, 4121
3992, 4070, 4071, 4123, 4122
3993, 4071, 4072, 4124, 4123
3994, 4072, 4073, 4125, 4124
3995, 4073, 4074, 4126, 4125
3996, 4074, 4075, 4127, 4126
3997, 4075, 4076, 4128, 4127
3998, 4076, 4077, 4129, 4128
3999, 4077, 4078, 4130, 4129
4000, 4078, 4079, 4131, 4130
4001, 4079, 4080, 4132, 4131
4002, 4080, 4081, 4133, 4132
4003, 4081, 4082, 4134, 4133
4004, 4082, 4083, 4135, 4134
4005, 4083, 4084, 4136, 4135
4006, 4084, 4085, 4137, 4136
4007, 4085, 4086, 4138, 4137
4008, 4086, 4087, 4139, 4138
4009, 4087, 4088, 4140, 4139
4010, 4088, 4089, 4141, 4140
4011, 4089, 4090, 4142, 4141
4012, 4090, 4091, 4143, 4142
4013, 4091, 4092, 4144, 4143
4014, 4092, 4093, 4145, 4144
4015, 4093, 4094, 4146, 4145
4016, 4094, 4095, 4147, 4146
4017, 4095, 4096, 4148, 4147
4018, 4096, 4097, 4149, 4148
4019, 4097, 4098, 4150, 4149
4020, 4098, 4099, 4151, 4150
4021, 4099, 4100, 4152, 4151
4022, 4100, 4101, 4153, 4152
4023, 4101, 4102, 4154, 4153
4024, 4102, 4103, 4155, 4154
4025, 4103, 4104, 4156, 4155
4026, 4104, 4105, 4157, 4156
4027, 4105, 4106, 4158, 4157
4028, 4106, 4107, 4159, 4158
4029, 4107, 4108, 4160, 4159
4030, 4109, 4110, 4162, 4161
4031, 4110, 4111, 4163, 4162
4032, 4111, 4112, 4164, 4163
4033, 4112, 4113, 4165, 4164
4034, 4113, 4114, 4166, 4165
4035, 4114, 4115, 4167, 4166
4036, 4115, 4116, 4168, 4167
4037, 4116, 4117, 4169, 4168
4038, 4117, 4118, 4170, 4169
4039, 4118, 4119, 4171, 4170
4040, 4119, 4120, 4172, 4171
4041, 4120, 4121, 4173, 4172
4042, 4121, 4122, 4174, 4173
4043, 4122, 4123, 4175, 4174
4044, 4123, 4124, 4176, 4175
4045, 4124, 4125, 4177, 4176
4046, 4125, 4126, 4178, 4177
4047, 4126, 4127, 4179, 4178
4048, 4127, 4128, 4180, 4179
4049, 4128, 4129, 4181, 4180
4050, 4129, 4130, 4182, 4181
4051, 4130, 4131, 4183, 4182
4052, 4131, 4132, 4184, 4183
4053, 4132, 4133, 4185, 4184
4054, 4133, 4134, 4186, 4185
4055, 4134, 4135, 4187, 4186
4056, 4135, 4136, 4188, 4187
4057, 4136, 4137, 4189, 4188
4058, 4137, 4138, 4190, 4189
4059, 4138, 4139, 4191, 4190
4060, 4139, 4140, 4192, 4191
4061, 4140, 4141, 4193, 4192
4062, 4141, 4142, 4194, 4193
4063, 4142, 4143, 4195, 4194
4064, 4143, 4144, 4196, 4195
4065, 4144, 4145, 4197, 4196
4066, 4145, 4146, 4198, 4197
4067, 4146, 4147, 4199, 4198
4068, 4147, 4148, 4200, 4199
4069, 4148, 4149, 4201, 4200
4070, 4149, 4150, 4202, 4201
4071, 4150, 4151, 4203, 4202
4072, 4151, 4152, 4204, 4203
4073, 4152, 4153, 4205, 4204
4074, 4153, 4154, 4206, 4205
4075, 4154, 4155, 4207, 4206
4076, 4155, 4156, 4208, 4207
4077, 4156, 4157, 4209, 4208
4078, 4157, 4158, 4210, 4209
4079, 4158, 4159, 4211, 4210
4080, 4159, 4160, 4212, 4211
4081, 4161, 4162, 4214, 4213
4082, 4162, 4163, 4215, 4214
4083, 4163, 4164, 4216, 4215
4084, 4164, 4165, 4217, 4216
4085, 4165, 4166, 4218, 4217
4086, 4166, 4167, 4219, 4218
4087, 4167, 4168, 4220, 4219
4088, 4168, 4169, 4221, 4220
4089, 4169, 4170, 4222, 4221
4090, 4170, 4171, 4223, 4222
4091, 4171, 4172, 4224, 4223
4092, 4172, 4173, 4225, 4224
4093, 4173, 4174, 4226, 4225
4094, 4174, 4175, 4227, 4226
4095, 4175, 4176, 4228, 4227
4096, 4176, 4177, 4229, 4228
4097, 4177, 4178, 4230, 4229
4098, 4178, 4179, 4231, 4230
4099, 4179, 4180, 4232, 4231
4100, 4180, 4181, 4233, 4232
4101, 4181, 4182, 4234, 4233
4102, 4182, 4183, 4235, 4234
4103, 4183, 4184, 4236, 4235
4104, 4184, 4185, 4237, 4236
4105, 4185, 4186, 4238, 4237
4106, 4186, 4187, 4239, 4238
4107, 4187, 4188, 4240, 4239
4108, 4188, 4189, 4241, 4240
4109, 4189, 4190, 4242, 4241
4110, 4190, 4191, 4243, 4242
4111, 4191, 4192, 4244, 4243
4112, 4192, 4193, 4245, 4244
4113, 4193, 4194, 4246, 4245
4114, 4194, 4195, 4247, 4246
4115, 4195, 4196, 4248, 4247
4116, 4196, 4197, 4249, 4248
4117, 4197, 4198, 4250, 4249
4118, 4198, 4199, 4251, 4250
4119, 4199, 4200, 4252, 4251
4120, 4200, 4201, 4253, 4252
4121, 4201, 4202, 4254, 4253
4122, 4202, 4203, 4255, 4254
4123, 4203, 4204, 4256, 4255
4124, 4204, 4205, 4257, 4256
4125, 4205, 4206, 4258, 4257
4126, 4206, 4207, 4259, 4258
4127, 4207, 4208, 4260, 4259
4128, 4208, 4209, 4261, 4260
4129, 4209, 4210, 4262, 4261
4130, 4210, 4211, 4263, 4262
4131, 4211, 4212, 4264, 4263
4132, 4213, 4214, 4266, 4265
4133, 4214, 4215, 4267, 4266
4134, 4215, 4216, 4268, 4267
4135, 4216, 4217, 4269, 4268
4136, 4217, 4218, 4270, 4269
4137, 4218, 4219, 4271, 4270
4138, 4219, 4220, 4272, 4271
4139, 4220, 4221, 4273, 4272
4140, 4221, 4222, 4274, 4273
4141, 4222, 4223, 4275, 4274
4142, 4223, 4224, 4276, 4275
4143, 4224, 4225, 4277, 4276
4144, 4225, 4226, 4278, 4277
4145, 4226, 4227, 4279, 4278
4146, 4227, 4228, 4280, 4279
4147, 4228, 4229, 4281, 4280
4148, 4229, 4230, 4282, 4281
4149, 4230, 4231, 4283, 4282
4150, 4231, 4232, 4284, 4283
4151, 4232, 4233, 4285, 4284
4152, 4233, 4234, 4286, 4285
4153, 4234, 4235, 4287, 4286
4154, 4235, 4236, 4288, 4287
4155, 4236, 4237, 4289, 4288
4156, 4237, 4238, 4290, 4289
4157, 4238, 4239, 4291, 4290
4158, 4239, 4240, 4292, 4291
4159, 4240, 4241, 4293, 4292
4160, 4241, 4242, 4294, 4293
4161, 4242, 4243, 4295, 4294
4162, 4243, 4244, 4296, 4295
4163, 4244, 4245, 4297, 4296
4164, 4245, 4246, 4298, 4297
4165, 4246, 4247, 4299, 4298
4166, 4247, 4248, 4300, 4299
4167, 4248, 4249, 4301, 4300
4168, 4249, 4250, 4302, 4301
4169, 4250, 4251, 4303, 4302
4170, 4251, 4252, 4304, 4303
4171, 4252, 4253, 4305, 4304
4172, 4253, 4254, 4306, 4305
4173, 4254, 4255, 4307, 4306
4174, 4255, 4256, 4308, 4307
4175, 4256, 4257, 4309, 4308
4176, 4257, 4258, 4310, 4309
4177, 4258, 4259, 4311, 4310
4178, 4259, 4260, 4312, 4311
4179, 4260, 4261, 4313, 4312
4180, 4261, 4262, 4314, 4313
4181, 4262, 4263, 4315, 4314
4182, 4263, 4264, 4316, 4315
4183, 4265, 4266, 4318, 4317
4184, 4266, 4267, 4319, 4318
4185, 4267, 4268, 4320, 4319
4186, 4268, 4269, 4321, 4320
4187, 4269, 4270, 4322, 4321
4188, 4270, 4271, 4323, 4322
4189, 4271, 4272, 4324, 4323
4190, 4272, 4273, 4325, 4324
4191, 4273, 4274, 4326, 4325
4192, 4274, 4275, 4327, 4326
4193, 4275, 4276, 4328, 4327
4194, 4276, 4277, 4329, 4328
4195, 4277, 4278, 4330, 4329
4196, 4278, 4279, 4331, 4330
4197, 4279, 4280, 4332, 4331
4198, 4280, 4281, 4333, 4332
4199, 4281, 4282, 4334, 4333
4200, 4282, 4283, 4335, 4334
4201, 4283, 4284, 4336, 4335
4202, 4284, 4285, 4337, 4336
4203, 4285, 4286, 4338, 4337
4204, 4286, 4287, 4339, 4338
4205, 4287, 4288, 4340, 4339
4206, 4288, 4289, 4341, 4340
4207, 4289, 4290, 4342, 4341
4208, 4290, 4291, 4343, 4342
4209, 4291, 4292, 4344, 4343
4210, 4292, 4293, 4345, 4344
4211, 4293, 4294, 4346, 4345
4212, 4294, 4295, 4347, 4346
4213, 4295, 4296, 4348, 4347
4214, 4296, 4297, 4349, 4348
4215, 4297, 4298, 4350, 4349
4216, 4298, 4299, 4351, 4350
4217, 4299, 4300, 4352, 4351
4218, 4300, 4301, 4353, 4352
4219, 4301, 4302, 4354, 4353
4220, 4302, 4303, 4355, 4354
4221, 4303, 4304, 4356, 4355
4222, 4304, 4305, 4357, 4356
4223, 4305, 4306, 4358, 4357
4224, 4306, 4307, 4359, 4358
4225, 4307, 4308, 4360, 4359
4226, 4308, 4309, 4361, 4360
4227, 4309, 4310, 4362, 4361
4228, 4310, 4311, 4363, 4362
4229, 4311, 4312, 4364, 4363
4230, 4312, 4313, 4365, 4364
4231, 4313, 4314, 4366, 4365
4232, 4314, 4315, 4367, 4366
4233, 4315, 4316, 4368, 4367
4234, 4317, 4318, 4370, 4369
4235, 4318, 4319, 4371, 4370
4236, 4319, 4320, 4372, 4371
4237, 4320, 4321, 4373, 4372
4238, 4321, 4322, 4374, 4373
4239, 4322, 4323, 4375, 4374
4240, 4323, 4324, 4376, 4375
4241, 4324, 4325, 4377, 4376
4242, 4325, 4326, 4378, 4377
4243, 4326, 4327, 4379, 4378
4244, 4327, 4328, 4380, 4379
4245, 4328, 4329, 4381, 4380
4246, 4329, 4330, 4382, 4381
4247, 4330, 4331, 4383, 4382
4248, 4331, 4332, 4384, 4383
4249, 4332, 4333, 4385, 4384
4250, 4333, 4334, 4386, 4385
4251, 4334, 4335, 4387, 4386
4252, 4335, 4336, 4388, 4387
4253, 4336, 4337, 4389, 4388
4254, 4337, 4338, 4390, 4389
4255, 4338, 4339, 4391, 4390
4256, 4339, 4340, 4392, 4391
4257, 4340, 4341, 4393, 4392
4258, 4341, 4342, 4394, 4393
4259, 4342, 4343, 4395, 4394
4260, 4343, 4344, 4396, 4395
4261, 4344, 4345, 4397, 4396
4262, 4345, 4346, 4398, 4397
4263, 4346, 4347, 4399, 4398
4264, 4347, 4348, 4400, 4399
4265, 4348, 4349, 4401, 4400
4266, 4349, 4350, 4402, 4401
4267, 4350, 4351, 4403, 4402
4268, 4351, 4352, 4404, 4403
4269, 4352, 4353, 4405, 4404
4270, 4353, 4354, 4406, 4405
4271, 4354, 4355, 4407, 4406
4272, 4355, 4356, 4408, 4407
4273, 4356, 4357, 4409, 4408
4274, 4357, 4358, 4410, 4409
4275, 4358, 4359, 4411, 4410
4276, 4359, 4360, 4412, 4411
4277, 4360, 4361, 4413, 4412
4278, 4361, 4362, 4414, 4413
4279, 4362, 4363, 4415, 4414
4280, 4363, 4364, 4416, 4415
4281, 4364, 4365, 4417, 4416
4282, 4365, 4366, 4418, 4417
4283, 4366, 4367, 4419, 4418
4284, 4367, 4368, 4420, 4419
4285, 4369, 4370, 4422, 4421
4286, 4370, 4371, 4423, 4422
4287, 4371, 4372, 4424, 4423
4288, 4372, 4373, 4425, 4424
4289, 4373, 4374, 4426, 4425
4290, 4374, 4375, 4427, 4426
4291, 4375, 4376, 4428, 4427
4292, 4376, 4377, 4429, 4428
4293, 4377, 4378, 4430, 4429
4294, 4378, 4379, 4431, 4430
4295, 4379, 4380, 4432, 4431
4296, 4380, 4381, 4433, 4432
4297, 4381, 4382, 4434, 4433
4298, 4382, 4383, 4435, 4434
4299, 4383, 4384, 4436, 4435
4300, 4384, 4385, 4437, 4436
4301, 4385, 4386, 4438, 4437
4302, 4386, 4387, 4439, 4438
4303, 4387, 4388, 4440, 4439
4304, 4388, 4389, 4441, 4440
4305, 4389, 4390, 4442, 4441
4306, 4390, 4391, 4443, 4442
4307, 4391, 4392, 4444, 4443
4308, 4392, 4393, 4445, 4444
4309, 4393, 4394, 4446, 4445
4310, 4394, 4395, 4447, 4446
4311, 4395, 4396, 4448, 4447
4312, 4396, 4397, 4449, 4448
4313, 4397, 4398, 4450, 4449
4314, 4398, 4399, 4451, 4450
4315, 4399, 4400, 4452, 4451
4316, 4400, 4401, 4453, 4452
4317, 4401, 4402, 4454, 4453
4318, 4402, 4403, 4455, 4454
4319, 4403, 4404, 4456, 4455
4320, 4404, 4405, 4457, 4456
4321, 4405, 4406, 4458, 4457
4322, 4406, 4407, 4459, 4458
4323, 4407, 4408, 4460, 4459
4324, 4408, 4409, 4461, 4460
4325, 4409, 4410, 4462, 4461
4326, 4410, 4411, 4463, 4462
4327, 4411, 4412, 4464, 4463
4328, 4412, 4413, 4465, 4464
4329, 4413, 4414, 4466, 4465
4330, 4414, 4415, 4467, 4466
4331, 4415, 4416, 4468, 4467
4332, 4416, 4417, 4469, 4468
4333, 4417, 4418, 4470, 4469
4334, 4418, 4419, 4471, 4470
4335, 4419, 4420, 4472, 4471
4336, 4421, 4422, 4474, 4473
4337, 4422, 4423, 4475, 4474
4338, 4423, 4424, 4476, 4475
4339, 4424, 4425, 4477, 4476
4340, 4425, 4426, 4478, 4477
4341, 4426, 4427, 4479, 4478
4342, 4427, 4428, 4480, 4479
4343, 4428, 4429, 4481, 4480
4344, 4429, 4430, 4482, 4481
4345, 4430, 4431, 4483, 4482
4346, 4431, 4432, 4484, 4483
4347, 4432, 4433, 4485, 4484
4348, 4433, 4434, 4486, 4485
4349, 4434, 4435, 4487, 4486
4350, 4435, 4436, 4488, 4487
4351, 4436, 4437, 4489, 4488
4352, 4437, 4438, 4490, 4489
4353, 4438, 4439, 4491, 4490
4354, 4439, 4440, 4492, 4491
4355, 4440, 4441, 4493, 4492
4356, 4441, 4442, 4494, 4493
4357, 4442, 4443, 4495, 4494
4358, 4443, 4444, 4496, 4495
4359, 4444, 4445, 4497, 4496
4360, 4445, 4446, 4498, 4497
4361, 4446, 4447, 4499, 4498
4362, 4447, 4448, 4500, 4499
4363, 4448, 4449, 4501, 4500
4364, 4449, 4450, 4502, 4501
4365, 4450, 4451, 4503, 4502
4366, 4451, 4452, 4504, 4503
4367, 4452, 4453, 4505, 4504
4368, 4453, 4454, 4506, 4505
4369, 4454, 4455, 4507, 4506
4370, 4455, 4456, 4508, 4507
4371, 4456, 4457, 4509, 4508
4372, 4457, 4458, 4510, 4509
4373, 4458, 4459, 4511, 4510
4374, 4459, 4460, 4512, 4511
4375, 4460, 4461, 4513, 4512
4376, 4461, 4462, 4514, 4513
4377, 4462, 4463, 4515, 4514
4378, 4463, 4464, 4516, 4515
4379, 4464, 4465, 4517, 4516
4380, 4465, 4466, 4518, 4517
4381, 4466, 4467, 4519, 4518
4382, 4467, 4468, 4520, 4519
4383, 4468, 4469, 4521, 4520
4384, 4469, 4470, 4522, 4521
4385, 4470, 4471, 4523, 4522
4386, 4471, 4472, 4524, 4523
4387, 4473, 4474, 4526, 4525
4388, 4474, 4475, 4527, 4526
4389, 4475, 4476, 4528, 4527
4390, 4476, 4477, 4529, 4528
4391, 4477, 4478, 4530, 4529
4392, 4478, 4479, 4531, 4530
4393, 4479, 4480, 4532, 4531
4394, 4480, 4481, 4533, 4532
4395, 4481, 4482, 4534, 4533
4396, 4482, 4483, 4535, 4534
4397, 4483, 4484, 4536, 4535
4398, 4484, 4485, 4537, 4536
4399, 4485, 4486, 4538, 4537
4400, 4486, 4487, 4539, 4538
4401, 4487, 4488, 4540, 4539
4402, 4488, 4489, 4541, 4540
4403, 4489, 4490, 4542, 4541
4404, 4490, 4491, 4543, 4542
4405, 4491, 4492, 4544, 4543
4406, 4492, 4493, 4545, 4544
4407, 4493, 4494, 4546, 4545
4408, 4494, 4495, 4547, 4546
4409, 4495, 4496, 4548, 4547
4410, 4496, 4497, 4549, 4548
4411, 4497, 4498, 4550, 4549
4412, 4498, 4499, 4551, 4550
4413, 4499, 4500, 4552, 4551
4414, 4500, 4501, 4553, 4552
4415, 4501, 4502, 4554, 4553
4416, 4502, 4503, 4555, 4554
4417, 4503, 4504, 4556, 4555
4418, 4504, 4505, 4557, 4556
4419, 4505, 4506, 4558, 4557
4420, 4506, 4507, 4559, 4558
4421, 4507, 4508, 4560, 4559
4422, 4508, 4509, 4561, 4560
4423, 4509, 4510, 4562, 4561
4424, 4510, 4511, 4563, 4562
4425, 4511, 4512, 4564, 4563
4426, 4512, 4513, 4565, 4564
4427, 4513, 4514, 4566, 4565
4428, 4514, 4515, 4567, 4566
4429, 4515, 4516, 4568, 4567
4430, 4516, 4517, 4569, 4568
4431, 4517, 4518, 4570, 4569
4432, 4518, 4519, 4571, 4570
4433, 4519, 4520, 4572, 4571
4434, 4520, 4521, 4573, 4572
4435, 4521, 4522, 4574, 4573
4436, 4522, 4523, 4575, 4574
4437, 4523, 4524, 4576, 4575
4438, 4525, 4526, 4578, 4577
4439, 4526, 4527, 4579, 4578
4440, 4527, 4528, 4580, 4579
4441, 4528, 4529, 4581, 4580
4442, 4529, 4530, 4582, 4581
4443, 4530, 4531, 4583, 4582
4444, 4531, 4532, 4584, 4583
4445, 4532, 4533, 4585, 4584
4446, 4533, 4534, 4586, 4585
4447, 4534, 4535, 4587, 4586
4448, 4535, 4536, 4588, 4587
4449, 4536, 4537, 4589, 4588
4450, 4537, 4538, 4590, 4589
4451, 4538, 4539, 4591, 4590
4452, 4539, 4540, 4592, 4591
4453, 4540, 4541, 4593, 4592
4454, 4541, 4542, 4594, 4593
4455, 4542, 4543, 4595, 4594
4456, 4543, 4544, 4596, 4595
4457, 4544, 4545, 4597, 4596
4458, 4545, 4546, 4598, 4597
4459, 4546, 4547, 4599, 4598
4460, 4547, 4548, 4600, 4599
4461, 4548, 4549, 4601, 4600
4462, 4549, 4550, 4602, 4601
4463, 4550, 4551, 4603, 4602
4464, 4551, 4552, 4604, 4603
4465, 4552, 4553, 4605, 4604
4466, 4553, 4554, 4606, 4605
4467, 4554, 4555, 4607, 4606
4468, 4555, 4556, 4608, 4607
4469, 4556, 4557, 4609, 4608
4470, 4557, 4558, 4610, 4609
4471, 4558, 4559, 4611, 4610
4472, 4559, 4560, 4612, 4611
4473, 4560, 4561, 4613, 4612
4474, 4561, 4562, 4614, 4613
4475, 4562, 4563, 4615, 4614
4476, 4563, 4564, 4616, 4615
4477, 4564, 4565, 4617, 4616
4478, 4565, 4566, 4618, 4617
4479, 4566, 4567, 4619, 4618
4480, 4567, 4568, 4620, 4619
4481, 4568, 4569, 4621, 4620
4482, 4569, 4570, 4622, 4621
4483, 4570, 4571, 4623, 4622
4484, 4571, 4572, 4624, 4623
4485, 4572, 4573, 4625, 4624
4486, 4573, 4574, 4626, 4625
4487, 4574, 4575, 4627, 4626
4488, 4575, 4576, 4628, 4627
4489, 4577, 4578, 4630, 4629
4490, 4578, 4579, 4631, 4630
4491, 4579, 4580, 4632, 4631
4492, 4580, 4581, 4633, 4632
4493, 4581, 4582, 4634, 4633
4494, 4582, 4583, 4635, 4634
4495, 4583, 4584, 4636, 4635
4496, 4584, 4585, 4637, 4636
4497, 4585, 4586, 4638, 4637
4498, 4586, 4587, 4639, 4638
4499, 4587, 4588, 4640, 4639
4500, 4588, 4589, 4641, 4640
4501, 4589, 4590, 4642, 4641
4502, 4590, 4591, 4643, 4642
4503, 4591, 4592, 4644, 4643
4504, 4592, 4593, 4645, 4644
4505, 4593, 4594, 4646, 4645
4506, 4594, 4595, 4647, 4646
4507, 4595, 4596, 4648, 4647
4508, 4596, 4597, 4649, 4648
4509, 4597, 4598, 4650, 4649
4510, 4598, 4599, 4651, 4650
4511, 4599, 4600, 4652, 4651
4512, 4600, 4601, 4653, 4652
4513, 4601, 4602, 4654, 4653
4514, 4602, 4603, 4655, 4654
4515, 4603, 4604, 4656, 4655
4516, 4604, 4605, 4657, 4656
4517, 4605, 4606, 4658, 4657
4518, 4606, 4607, 4659, 4658
4519, 4607, 4608, 4660, 4659
4520, 4608, 4609, 4661, 4660
4521, 4609, 4610, 4662, 4661
4522, 4610, 4611, 4663, 4662
4523, 4611, 4612, 4664, 4663
4524, 4612, 4613, 4665, 4664
4525, 4613, 4614, 4666, 4665
4526, 4614, 4615, 4667, 4666
4527, 4615, 4616, 4668, 4667
4528, 4616, 4617, 4669, 4668
4529, 4617, 4618, 4670, 4669
4530, 4618, 4619, 4671, 4670
4531, 4619, 4620, 4672, 4671
4532, 4620, 4621, 4673, 4672
4533, 4621, 4622, 4674, 4673
4534, 4622, 4623, 4675, 4674
4535, 4623, 4624, 4676, 4675
4536, 4624, 4625, 4677, 4676
4537, 4625, 4626, 4678, 4677
4538, 4626, 4627, 4679, 4678
4539, 4627, 4628, 4680, 4679
4540, 4629, 4630, 4682, 4681
4541, 4630, 4631, 4683, 4682
4542, 4631, 4632, 4684, 4683
4543, 4632, 4633, 4685, 4684
4544, 4633, 4634, 4686, 4685
4545, 4634, 4635, 4687, 4686
4546, 4635, 4636, 4688, 4687
4547, 4636, 4637, 4689, 4688
4548, 4637, 4638, 4690, 4689
4549, 4638, 4639, 4691, 4690
4550, 4639, 4640, 4692, 4691
4551, 4640, 4641, 4693, 4692
4552, 4641, 4642, 4694, 4693
4553, 4642, 4643, 4695, 4694
4554, 4643, 4644, 4696, 4695
4555, 4644, 4645, 4697, 4696
4556, 4645, 4646, 4698, 4697
4557, 4646, 4647, 4699, 4698
4558, 4647, 4648, 4700, 4699
4559, 4648, 4649, 4701, 4700
4560, 4649, 4650, 4702, 4701
4561, 4650, 4651, 4703, 4702
4562, 4651, 4652, 4704, 4703
4563, 4652, 4653, 4705, 4704
4564, 4653, 4654, 4706, 4705
4565, 4654, 4655, 4707, 4706
4566, 4655, 4656, 4708, 4707
4567, 4656, 4657, 4709, 4708
4568, 4657, 4658, 4710, 4709
4569, 4658, 4659, 4711, 4710
4570, 4659, 4660, 4712, 4711
4571, 4660, 4661, 4713, 4712
4572, 4661, 4662, 4714, 4713
4573, 4662, 4663, 4715, 4714
4574, 4663, 4664, 4716, 4715
4575, 4664, 4665, 4717, 4716
4576, 4665, 4666, 4718, 4717
4577, 4666, 4667, 4719, 4718
4578, 4667, 4668, 4720, 4719
4579, 4668, 4669, 4721, 4720
4580, 4669, 4670, 4722, 4721
4581, 4670, 4671, 4723, 4722
4582, 4671, 4672, 4724, 4723
4583, 4672, 4673, 4725, 4724
4584, 4673, 4674, 4726, 4725
4585, 4674, 4675, 4727, 4726
4586, 4675, 4676, 4728, 4727
4587, 4676, 4677, 4729, 4728
4588, 4677, 4678, 4730, 4729
4589, 4678, 4679, 4731, 4730
4590, 4679, 4680, 4732, 4731
4591, 4681, 4682, 4734, 4733
4592, 4682, 4683, 4735, 4734
4593, 4683, 4684, 4736, 4735
4594, 4684, 4685, 4737, 4736
4595, 4685, 4686, 4738, 4737
4596, 4686, 4687, 4739, 4738
4597, 4687, 4688, 4740, 4739
4598, 4688, 4689, 4741, 4740
4599, 4689, 4690, 4742, 4741
4600, 4690, 4691, 4743, 4742
4601, 4691, 4692, 4744, 4743
4602, 4692, 4693, 4745, 4744
4603, 4693, 4694, 4746, 4745
4604, 4694, 4695, 4747, 4746
4605, 4695, 4696, 4748, 4747
4606, 4696, 4697, 4749, 4748
4607, 4697, 4698, 4750, 4749
4608, 4698, 4699, 4751, 4750
4609, 4699, 4700, 4752, 4751
4610, 4700, 4701, 4753, 4752
4611, 4701, 4702, 4754, 4753
4612, 4702, 4703, 4755, 4754
4613, 4703, 4704, 4756, 4755
4614, 4704, 4705, 4757, 4756
4615, 4705, 4706, 4758, 4757
4616, 4706, 4707, 4759, 4758
4617, 4707, 4708, 4760, 4759
4618, 4708, 4709, 4761, 4760
4619, 4709, 4710, 4762, 4761
4620, 4710, 4711, 4763, 4762
4621, 4711, 4712, 4764, 4763
4622, 4712, 4713, 4765, 4764
4623, 4713, 4714, 4766, 4765
4624, 4714, 4715, 4767, 4766
4625, 4715, 4716, 4768, 4767
4626, 4716, 4717, 4769, 4768
4627, 4717, 4718, 4770, 4769
4628, 4718, 4719, 4771, 4770
4629, 4719, 4720, 4772, 4771
4630, 4720, 4721, 4773, 4772
4631, 4721, 4722, 4774, 4773
4632, 4722, 4723, 4775, 4774
4633, 4723, 4724, 4776, 4775
4634, 4724, 4725, 4777, 4776
4635, 4725, 4726, 4778, 4777
4636, 4726, 4727, 4779, 4778
4637, 4727, 4728, 4780, 4779
4638, 4728, 4729, 4781, 4780
4639, 4729, 4730, 4782, 4781
4640, 4730, 4731, 4783, 4782
4641, 4731, 4732, 4784, 4783
4642, 4733, 4734, 4786, 4785
4643, 4734, 4735, 4787, 4786
4644, 4735, 4736, 4788, 4787
4645, 4736, 4737, 4789, 4788
4646, 4737, 4738, 4790, 4789
4647, 4738, 4739, 4791, 4790
4648, 4739, 4740, 4792, 4791
4649, 4740, 4741, 4793, 4792
4650, 4741, 4742, 4794, 4793
4651, 4742, 4743, 4795, 4794
4652, 4743, 4744, 4796, 4795
4653, 4744, 4745, 4797, 4796
4654, 4745, 4746, 4798, 4797
4655, 4746, 4747, 4799, 4798
4656, 4747, 4748, 4800, 4799
4657, 4748, 4749, 4801, 4800
4658, 4749, 4750, 4802, 4801
4659, 4750, 4751, 4803, 4802
4660, 4751, 4752, 4804, 4803
4661, 4752, 4753, 4805, 4804
4662, 4753, 4754, 4806, 4805
4663, 4754, 4755, 4807, 4806
4664, 4755, 4756, 4808, 4807
4665, 4756, 4757, 4809, 4808
4666, 4757, 4758, 4810, 4809
4667, 4758, 4759, 4811, 4810
4668, 4759, 4760, 4812, 4811
4669, 4760, 4761, 4813, 4812
4670, 4761, 4762, 4814, 4813
4671, 4762, 4763, 4815, 4814
4672, 4763, 4764, 4816, 4815
4673, 4764, 4765, 4817, 4816
4674, 4765, 4766, 4818, 4817
4675, 4766, 4767, 4819, 4818
4676, 4767, 4768, 4820, 4819
4677, 4768, 4769, 4821, 4820
4678, 4769, 4770, 4822, 4821
4679, 4770, 4771, 4823, 4822
4680, 4771, 4772, 4824, 4823
4681, 4772, 4773, 4825, 4824
4682, 4773, 4774, 4826, 4825
4683, 4774, 4775, 4827, 4826
4684, 4775, 4776, 4828, 4827
4685, 4776, 4777, 4829, 4828
4686, 4777, 4778, 4830, 4829
4687, 4778, 4779, 4831, 4830
4688, 4779, 4780, 4832, 4831
4689, 4780, 4781, 4833, 4832
4690, 4781, 4782, 4834, 4833
4691, 4782, 4783, 4835, 4834
4692, 4783, 4784, 4836, 4835
4693, 4785, 4786, 4838, 4837
4694, 4786, 4787, 4839, 4838
4695, 4787, 4788, 4840, 4839
4696, 4788, 4789, 4841, 4840
4697, 4789, 4790, 4842, 4841
4698, 4790, 4791, 4843, 4842
4699, 4791, 4792, 4844, 4843
4700, 4792, 4793, 4845, 4844
4701, 4793, 4794, 4846, 4845
4702, 4794, 4795, 4847, 4846
4703, 4795, 4796, 4848, 4847
4704, 4796, 4797, 4849, 4848
4705, 4797, 4798, 4850, 4849
4706, 4798, 4799, 4851, 4850
4707, 4799, 4800, 4852, 4851
4708, 4800, 4801, 4853, 4852
4709, 4801, 4802, 4854, 4853
4710, 4802, 4803, 4855, 4854
4711, 4803, 4804, 4856, 4855
4712, 4804, 4805, 4857, 4856
4713, 4805, 4806, 4858, 4857
4714, 4806, 4807, 4859, 4858
4715, 4807, 4808, 4860, 4859
4716, 4808, 4809, 4861, 4860
4717, 4809, 4810, 4862, 4861
4718, 4810, 4811, 4863, 4862
4719, 4811, 4812, 4864, 4863
4720, 4812, 4813, 4865, 4864
4721, 4813, 4814, 4866, 4865
4722, 4814, 4815, 4867, 4866
4723, 4815, 4816, 4868, 4867
4724, 4816, 4817, 4869, 4868
4725, 4817, 4818, 4870, 4869
4726, 4818, 4819, 4871, 4870
4727, 4819, 4820, 4872, 4871
4728, 4820, 4821, 4873, 4872
4729, 4821, 4822, 4874, 4873
4730, 4822, 4823, 4875, 4874
4731, 4823, 4824, 4876, 4875
4732, 4824, 4825, 4877, 4876
4733, 4825, 4826, 4878, 4877
4734, 4826, 4827, 4879, 4878
4735, 4827, 4828, 4880, 4879
4736, 4828, 4829, 4881, 4880
4737, 4829, 4830, 4882, 4881
4738, 4830, 4831, 4883, 4882
4739, 4831, 4832, 4884, 4883
4740, 4832, 4833, 4885, 4884
4741, 4833, 4834, 4886, 4885
4742, 4834, 4835, 4887, 4886
4743, 4835, 4836, 4888, 4887
4744, 4837, 4838, 4890, 4889
4745, 4838, 4839, 4891, 4890
4746, 4839, 4840, 4892, 4891
4747, 4840, 4841, 4893, 4892
4748, 4841, 4842, 4894, 4893
4749, 4842, 4843, 4895, 4894
4750, 4843, 4844, 4896, 4895
4751, 4844, 4845, 4897, 4896
4752, 4845, 4846, 4898, 4897
4753, 4846, 4847, 4899, 4898
4754, 4847, 4848, 4900, 4899
4755, 4848, 4849, 4901, 4900
4756, 4849, 4850, 4902, 4901
4757, 4850, 4851, 4903, 4902
4758, 4851, 4852, 4904, 4903
4759, 4852, 4853, 4905, 4904
4760, 4853, 4854, 4906, 4905
4761, 4854, 4855, 4907, 4906
4762, 4855, 4856, 4908, 4907
4763, 4856, 4857, 4909, 4908
4764, 4857, 4858, 4910, 4909
4765, 4858, 4859, 4911, 4910
4766, 4859, 4860, 4912, 4911
4767, 4860, 4861, 4913, 4912
4768, 4861, 4862, 4914, 4913
4769, 4862, 4863, 4915, 4914
4770, 4863, 4864, 4916, 4915
4771, 4864, 4865, 4917, 4916
4772, 4865, 4866, 4918, 4917
4773, 4866, 4867, 4919, 4918
4774, 4867, 4868, 4920, 4919
4775, 4868, 4869, 4921, 4920
4776, 4869, 4870, 4922, 4921
4777, 4870, 4871, 4923, 4922
4778, 4871, 4872, 4924, 4923
4779, 4872, 4873, 4925, 4924
4780, 4873, 4874, 4926, 4925
4781, 4874, 4875, 4927, 4926
4782, 4875, 4876, 4928, 4927
4783, 4876, 4877, 4929, 4928
4784, 4877, 4878, 4930, 4929
4785, 4878, 4879, 4931, 4930
4786, 4879, 4880, 4932, 4931
4787, 4880, 4881, 4933, 4932
4788, 4881, 4882, 4934, 4933
4789, 4882, 4883, 4935, 4934
4790, 4883, 4884, 4936, 4935
4791, 4884, 4885, 4937, 4936
4792, 4885, 4886, 4938, 4937
4793, 4886, 4887, 4939, 4938
4794, 4887, 4888, 4940, 4939
4795, 4889, 4890, 4942, 4941
4796, 4890, 4891, 4943, 4942
4797, 4891, 4892, 4944, 4943
4798, 4892, 4893, 4945, 4944
4799, 4893, 4894, 4946, 4945
4800, 4894, 4895, 4947, 4946
4801, 4895, 4896, 4948, 4947
4802, 4896, 4897, 4949, 4948
4803, 4897, 4898, 4950, 4949
4804, 4898, 4899, 4951, 4950
4805, 4899, 4900, 4952, 4951
4806, 4900, 4901, 4953, 4952
4807, 4901, 4902, 4954, 4953
4808, 4902, 4903, 4955, 4954
4809, 4903, 4904, 4956, 4955
4810, 4904, 4905, 4957, 4956
4811, 4905, 4906, 4958, 4957
4812, 4906, 4907, 4959, 4958
4813, 4907, 4908, 4960, 4959
4814, 4908, 4909, 4961, 4960
4815, 4909, 4910, 4962, 4961
4816, 4910, 4911, 4963, 4962
4817, 4911, 4912, 4964, 4963
4818, 4912, 4913, 4965, 4964
4819, 4913, 4914, 4966, 4965
4820, 4914, 4915, 4967, 4966
4821, 4915, 4916, 4968, 4967
4822, 4916, 4917, 4969, 4968
4823, 4917, 4918, 4970, 4969
4824, 4918, 4919, 4971, 4970
4825, 4919, 4920, 4972, 4971
4826, 4920, 4921, 4973, 4972
4827, 4921, 4922, 4974, 4973
4828, 4922, 4923, 4975, 4974
4829, 4923, 4924, 4976, 4975
4830, 4924, 4925, 4977, 4976
4831, 4925, 4926, 4978, 4977
4832, 4926, 4927, 4979, 4978
4833, 4927, 4928, 4980, 4979
4834, 4928, 4929, 4981, 4980
4835, 4929, 4930, 4982, 4981
4836, 4930, 4931, 4983, 4982
4837, 4931, 4932, 4984, 4983
4838, 4932, 4933, 4985, 4984
4839, 4933, 4934, 4986, 4985
4840, 4934, 4935, 4987, 4986
4841, 4935, 4936, 4988, 4987
4842, 4936, 4937, 4989, 4988
4843, 4937, 4938, 4990, 4989
4844, 4938, 4939, 4991, 4990
4845, 4939, 4940, 4992, 4991
4846, 4941, 4942, 4994, 4993
4847, 4942, 4943, 4995, 4994
4848, 4943, 4944, 4996, 4995
4849, 4944, 4945, 4997, 4996
4850, 4945, 4946, 4998, 4997
4851, 4946, 4947, 4999, 4998
4852, 4947, 4948, 5000, 4999
4853, 4948, 4949, 5001, 5000
4854, 4949, 4950, 5002, 5001
4855, 4950, 4951, 5003, 5002
4856, 4951, 4952, 5004, 5003
4857, 4952, 4953, 5005, 5004
4858, 4953, 4954, 5006, 5005
4859, 4954, 4955, 5007, 5006
4860, 4955, 4956, 5008, 5007
4861, 4956, 4957, 5009, 5008
4862, 4957, 4958, 5010, 5009
4863, 4958, 4959, 5011, 5010
4864, 4959, 4960, 5012, 5011
4865, 4960, 4961, 5013, 5012
4866, 4961, 4962, 5014, 5013
4867, 4962, 4963, 5015, 5014
4868, 4963, 4964, 5016, 5015
4869, 4964, 4965, 5017, 5016
4870, 4965, 4966, 5018, 5017
4871, 4966, 4967, 5019, 5018
4872, 4967, 4968, 5020, 5019
4873, 4968, 4969, 5021, 5020
4874, 4969, 4970, 5022, 5021
4875, 4970, 4971, 5023, 5022
4876, 4971, 4972, 5024, 5023
4877, 4972, 4973, 5025, 5024
4878, 4973, 4974, 5026, 5025
4879, 4974, 4975, 5027, 5026
4880, 4975, 4976, 5028, 5027
4881, 4976, 4977, 5029, 5028
4882, 4977, 4978, 5030, 5029
4883, 4978, 4979, 5031, 5030
4884, 4979, 4980, 5032, 5031
4885, 4980, 4981, 5033, 5032
4886, 4981, 4982, 5034, 5033
4887, 4982, 4983, 5035, 5034
4888, 4983, 4984, 5036, 5035
4889, 4984, 4985, 5037, 5036
4890, 4985, 4986, 5038, 5037
4891, 4986, 4987, 5039, 5038
4892, 4987, 4988, 5040, 5039
4893, 4988, 4989, 5041, 5040
4894, 4989, 4990, 5042, 5041
4895, 4990, 4991, 5043, 5042
4896, 4991, 4992, 5044, 5043
4897, 4993, 4994, 5046, 5045
4898, 4994, 4995, 5047, 5046
4899, 4995, 4996, 5048, 5047
4900, 4996, 4997, 5049, 5048
4901, 4997, 4998, 5050, 5049
4902, 4998, 4999, 5051, 5050
4903, 4999, 5000, 5052, 5051
4904, 5000, 5001, 5053, 5052
4905, 5001, 5002, 5054, 5053
4906, 5002, 5003, 5055, 5054
4907, 5003, 5004, 5056, 5055
4908, 5004, 5005, 5057, 5056
4909, 5005, 5006, 5058, 5057
4910, 5006, 5007, 5059, 5058
4911, 5007, 5008, 5060, 5059
4912, 5008, 5009, 5061, 5060
4913, 5009, 5010, 5062, 5061
4914, 5010, 5011, 5063, 5062
4915, 5011, 5012, 5064, 5063
4916, 5012, 5013, 5065, 5064
4917, 5013, 5014, 5066, 5065
4918, 5014, 5015, 5067, 5066
4919, 5015, 5016, 5068, 5067
4920, 5016, 5017, 5069, 5068
4921, 5017, 5018, 5070, 5069
4922, 5018, 5019, 5071, 5070
4923, 5019, 5020, 5072, 5071
4924, 5020, 5021, 5073, 5072
4925, 5021, 5022, 5074, 5073
4926, 5022, 5023, 5075, 5074
4927, 5023, 5024, 5076, 5075
4928, 5024, 5025, 5077, 5076
4929, 5025, 5026, 5078, 5077
4930, 5026, 5027, 5079, 5078
4931, 5027, 5028, 5080, 5079
4932, 5028, 5029, 5081, 5080
4933, 5029, 5030, 5082, 5081
4934, 5030, 5031, 5083, 5082
4935, 5031, 5032, 5084, 5083
4936, 5032, 5033, 5085, 5084
4937, 5033, 5034, 5086, 5085
4938, 5034, 5035, 5087, 5086
4939, 5035, 5036, 5088, 5087
4940, 5036, 5037, 5089, 5088
4941, 5037, 5038, 5090, 5089
4942, 5038, 5039, 5091, 5090
4943, 5039, 5040, 5092, 5091
4944, 5040, 5041, 5093, 5092
4945, 5041, 5042, 5094, 5093
4946, 5042, 5043, 5095, 5094
4947, 5043, 5044, 5096, 5095
4948, 5045, 5046, 5098, 5097
4949, 5046, 5047, 5099, 5098
4950, 5047, 5048, 5100, 5099
4951, 5048, 5049, 5101, 5100
4952, 5049, 5050, 5102, 5101
4953, 5050, 5051, 5103, 5102
4954, 5051, 5052, 5104, 5103
4955, 5052, 5053, 5105, 5104
4956, 5053, 5054, 5106, 5105
4957, 5054, 5055, 5107, 5106
4958, 5055, 5056, 5108, 5107
4959, 5056, 5057, 5109, 5108
4960, 5057, 5058, 5110, 5109
4961, 5058, 5059, 5111, 5110
4962, 5059, 5060, 5112, 5111
4963, 5060, 5061, 5113, 5112
4964, 5061, 5062, 5114, 5113
4965, 5062, 5063, 5115, 5114
4966, 5063, 5064, 5116, 5115
4967, 5064, 5065, 5117, 5116
4968, 5065, 5066, 5118, 5117
4969, 5066, 5067, 5119, 5118
4970, 5067, 5068, 5120, 5119
4971, 5068, 5069, 5121, 5120
4972, 5069, 5070, 5122, 5121
4973, 5070, 5071, 5123, 5122
4974, 5071, 5072, 5124, 5123
4975, 5072, 5073, 5125, 5124
4976, 5073, 5074, 5126, 5125
4977, 5074, 5075, 5127, 5126
4978, 5075, 5076, 5128, 5127
4979, 5076, 5077, 5129, 5128
4980, 5077, 5078, 5130, 5129
4981, 5078, 5079, 5131, 5130
4982, 5079, 5080, 5132, 5131
4983, 5080, 5081, 5133, 5132
4984, 5081, 5082, 5134, 5133
4985, 5082, 5083, 5135, 5134
4986, 5083, 5084, 5136, 5135
4987, 5084, 5085, 5137, 5136
4988, 5085, 5086, 5138, 5137
4989, 5086, 5087, 5139, 5138
4990, 5087, 5088, 5140, 5139
4991, 5088, 5089, 5141, 5140
4992, 5089, 5090, 5142, 5141
4993, 5090, 5091, 5143, 5142
4994, 5091, 5092, 5144, 5143
4995, 5092, 5093, 5145, 5144
4996, 5093, 5094, 5146, 5145
4997, 5094, 5095, 5147, 5146
4998, 5095, 5096, 5148, 5147
4999, 5097, 5098, 5150, 5149
5000, 5098, 5099, 5151, 5150
5001, 5099, 5100, 5152, 5151
5002, 5100, 5101, 5153, 5152
5003, 5101, 5102, 5154, 5153
5004, 5102, 5103, 5155, 5154
5005, 5103, 5104, 5156, 5155
5006, 5104, 5105, 5157, 5156
5007, 5105, 5106, 5158, 5157
5008, 5106, 5107, 5159, 5158
5009, 5107, 5108, 5160, 5159
5010, 5108, 5109, 5161, 5160
5011, 5109, 5110, 5162, 5161
5012, 5110, 5111, 5163, 5162
5013, 5111, 5112, 5164, 5163
5014, 5112, 5113, 5165, 5164
5015, 5113, 5114, 5166, 5165
5016, 5114, 5115, 5167, 5166
5017, 5115, 5116, 5168, 5167
5018, 5116, 5117, 5169, 5168
5019, 5117, 5118, 5170, 5169
5020, 5118, 5119, 5171, 5170
5021, 5119, 5120, 5172, 5171
5022, 5120, 5121, 5173, 5172
5023, 5121, 5122, 5174, 5173
5024, 5122, 5123, 5175, 5174
5025, 5123, 5124, 5176, 5175
5026, 5124, 5125, 5177, 5176
5027, 5125, 5126, 5178, 5177
5028, 5126, 5127, 5179, 5178
5029, 5127, 5128, 5180, 5179
5030, 5128, 5129, 5181, 5180
5031, 5129, 5130, 5182, 5181
5032, 5130, 5131, 5183, 5182
5033, 5131, 5132, 5184, 5183
5034, 5132, 5133, 5185, 5184
5035, 5133, 5134, 5186, 5185
5036, 5134, 5135, 5187, 5186
5037, 5135, 5136, 5188, 5187
5038, 5136, 5137, 5189, 5188
5039, 5137, 5138, 5190, 5189
5040, 5138, 5139, 5191, 5190
5041, 5139, 5140, 5192, 5191
5042, 5140, 5141, 5193, 5192
5043, 5141, 5142, 5194, 5193
5044, 5142, 5143, 5195, 5194
5045, 5143, 5144, 5196, 5195
5046, 5144, 5145, 5197, 5196
5047, 5145, 5146, 5198, 5197
5048, 5146, 5147, 5199, 5198
5049, 5147, 5148, 5200, 5199
5050, 5149, 5150, 5202, 5201
5051, 5150, 5151, 5203, 5202
5052, 5151, 5152, 5204, 5203
5053, 5152, 5153, 5205, 5204
5054, 5153, 5154, 5206, 5205
5055, 5154, 5155, 5207, 5206
5056, 5155, 5156, 5208, 5207
5057, 5156, 5157, 5209, 5208
5058, 5157, 5158, 5210, 5209
5059, 5158, 5159, 5211, 5210
5060, 5159, 5160, 5212, 5211
5061, 5160, 5161, 5213, 5212
5062, 5161, 5162, 5214, 5213
5063, 5162, 5163, 5215, 5214
5064, 5163, 5164, 5216, 5215
5065, 5164, 5165, 5217, 5216
5066, 5165, 5166, 5218, 5217
5067, 5166, 5167, 5219, 5218
5068, 5167, 5168, 5220, 5219
5069, 5168, 5169, 5221, 5220
5070, 5169, 5170, 5222, 5221
5071, 5170, 5171, 5223, 5222
5072, 5171, 5172, 5224, 5223
5073, 5172, 5173, 5225, 5224
5074, 5173, 5174, 5226, 5225
5075, 5174, 5175, 5227, 5226
5076, 5175, 5176, 5228, 5227
5077, 5176, 5177, 5229, 5228
5078, 5177, 5178, 5230, 5229
5079, 5178, 5179, 5231, 5230
5080, 5179, 5180, 5232, 5231
5081, 5180, 5181, 5233, 5232
5082, 5181, 5182, 5234, 5233
5083, 5182, 5183, 5235, 5234
5084, 5183, 5184, 5236, 5235
5085, 5184, 5185, 5237, 5236
5086, 5185, 5186, 5238, 5237
5087, 5186, 5187, 5239, 5238
5088, 5187, 5188, 5240, 5239
5089, 5188, 5189, 5241, 5240
5090, 5189, 5190, 5242, 5241
5091, 5190, 5191, 5243, 5242
5092, 5191, 5192, 5244, 5243
5093, 5192, 5193, 5245, 5244
5094, 5193, 5194, 5246, 5245
5095, 5194, 5195, 5247, 5246
5096, 5195, 5196, 5248, 5247
5097, 5196, 5197, 5249, 5248
5098, 5197, 5198, 5250, 5249
5099, 5198, 5199, 5251, 5250
5100, 5199, 5200, 5252, 5251
5101, 5201, 5202, 5254, 5253
5102, 5202, 5203, 5255, 5254
5103, 5203, 5204, 5256, 5255
5104, 5204, 5205, 5257, 5256
5105, 5205, 5206, 5258, 5257
5106, 5206, 5207, 5259, 5258
5107, 5207, 5208, 5260, 5259
5108, 5208, 5209, 5261, 5260
5109, 5209, 5210, 5262, 5261
5110, 5210, 5211, 5263, 5262
5111, 5211, 5212, 5264, 5263
5112, 5212, 5213, 5265, 5264
5113, 5213, 5214, 5266, 5265
5114, 5214, 5215, 5267, 5266
5115, 5215, 5216, 5268, 5267
5116, 5216, 5217, 5269, 5268
5117, 5217, 5218, 5270, 5269
5118, 5218, 5219, 5271, 5270
5119, 5219, 5220, 5272, 5271
5120, 5220, 5221, 5273, 5272
5121, 5221, 5222, 5274, 5273
5122, 5222, 5223, 5275, 5274
5123, 5223, 5224, 5276, 5275
5124, 5224, 5225, 5277, 5276
5125, 5225, 5226, 5278, 5277
5126, 5226, 5227, 5279, 5278
5127, 5227, 5228, 5280, 5279
5128, 5228, 5229, 5281, 5280
5129, 5229, 5230, 5282, 5281
5130, 5230, 5231, 5283, 5282
5131, 5231, 5232, 5284, 5283
5132, 5232, 5233, 5285, 5284
5133, 5233, 5234, 5286, 5285
5134, 5234, 5235, 5287, 5286
5135, 5235, 5236, 5288, 5287
5136, 5236, 5237, 5289, 5288
5137, 5237, 5238, 5290, 5289
5138, 5238, 5239, 5291, 5290
5139, 5239, 5240, 5292, 5291
5140, 5240, 5241, 5293, 5292
5141, 5241, 5242, 5294, 5293
5142, 5242, 5243, 5295, 5294
5143, 5243, 5244, 5296, 5295
5144, 5244, 5245, 5297, 5296
5145, 5245, 5246, 5298, 5297
5146, 5246, 5247, 5299, 5298
5147, 5247, 5248, 5300, 5299
5148, 5248, 5249, 5301, 5300
5149, 5249, 5250, 5302, 5301
5150, 5250, 5251, 5303, 5302
5151, 5251, 5252, 5304, 5303
5152, 5253, 5254, 5306, 5305
5153, 5254, 5255, 5307, 5306
5154, 5255, 5256, 5308, 5307
5155, 5256, 5257, 5309, 5308
5156, 5257, 5258, 5310, 5309
5157, 5258, 5259, 5311, 5310
5158, 5259, 5260, 5312, 5311
5159, 5260, 5261, 5313, 5312
5160, 5261, 5262, 5314, 5313
5161, 5262, 5263, 5315, 5314
5162, 5263, 5264, 5316, 5315
5163, 5264, 5265, 5317, 5316
5164, 5265, 5266, 5318, 5317
5165, 5266, 5267, 5319, 5318
5166, 5267, 5268, 5320, 5319
5167, 5268, 5269, 5321, 5320
5168, 5269, 5270, 5322, 5321
5169, 5270, 5271, 5323, 5322
5170, 5271, 5272, 5324, 5323
5171, 5272, 5273, 5325, 5324
5172, 5273, 5274, 5326, 5325
5173, 5274, 5275, 5327, 5326
5174, 5275, 5276, 5328, 5327
5175, 5276, 5277, 5329, 5328
5176, 5277, 5278, 5330, 5329
5177, 5278, 5279, 5331, 5330
5178, 5279, 5280, 5332, 5331
5179, 5280, 5281, 5333, 5332
5180, 5281, 5282, 5334, 5333
5181, 5282, 5283, 5335, 5334
5182, 5283, 5284, 5336, 5335
5183, 5284, 5285, 5337, 5336
5184, 5285, 5286, 5338, 5337
5185, 5286, 5287, 5339, 5338
5186, 5287, 5288, 5340, 5339
5187, 5288, 5289, 5341, 5340
5188, 5289, 5290, 5342, 5341
5189, 5290, 5291, 5343, 5342
5190, 5291, 5292, 5344, 5343
5191, 5292, 5293, 5345, 5344
5192, 5293, 5294, 5346, 5345
5193, 5294, 5295, 5347, 5346
5194, 5295, 5296, 5348, 5347
5195, 5296, 5297, 5349, 5348
5196, 5297, 5298, 5350, 5349
5197, 5298, 5299, 5351, 5350
5198, 5299, 5300, 5352, 5351
5199, 5300, 5301, 5353, 5352
5200, 5301, 5302, 5354, 5353
5201, 5302, 5303, 5355, 5354
5202, 5303, 5304, 5356, 5355
*Nset, nset=all, generate
    1,  5356,     1
*Elset, elset=all, generate
    1,  5202,     1
*Orientation, name=Ori-1
1., 0., 0., 0., 1., 0.
3, 45.
** Section: Section-1-ALL
*Shell Section, elset=all, material=H1, orientation=Ori-1
0.53, 5
*Transverse Shear Stiffness
5600., 5600., 4200.
*End Instance
**  
*Nset, nset=BottomFix, instance=BiasExtension-1, generate
  1,  52,   1
*Elset, elset=BottomFix, instance=BiasExtension-1, generate
  1,  51,   1
*Nset, nset=topMove, instance=BiasExtension-1, generate
 5305,  5356,     1
*Elset, elset=topMove, instance=BiasExtension-1, generate
 5152,  5202,     1
*End Assembly
*Amplitude, name=Amp-1
             0.,              0.,              1.,              1.
** 
** MATERIALS
** 
*Material, name=GAP
*Density
 1.33e-09,
*Depvar
     40,
*User Defined Field
*User Material, constants=20
 21217.8,        1000.,          0.1, -2.30462e+06,  2.01194e+06,     -708418.,      128656.,     -12809.7
       696.12,          85.,          0.5,        7500.,          0.2,        3800.,         0.39,        0.004
      17296.1,         625.,          0.1,        0.004
*Material, name=H1
*Density
 3.33e-09,
*Depvar
     40,
*User Defined Field
*User Material, constants=20
30.,      80.,      0.1,  2.74587, -12.2006,  20.2172, -16.1063,  6.65131
 0.490791,      75.,      0.5,       5.,      0.2,    3800.,     0.39,    0.006
      30.,      80.,      0.1,    0.006
** ----------------------------------------------------------------
** 
** STEP: Step-1
** 
*Step, name=Step-1, nlgeom=YES
*Dynamic, Explicit
, 1.
*Bulk Viscosity
0.06, 1.2
** 
** BOUNDARY CONDITIONS
** 
** Name: BC-1 Type: Symmetry/Antisymmetry/Encastre
*Boundary
BottomFix, ENCASTRE
** Name: BC-2 Type: Displacement/Rotation
*Boundary, amplitude=Amp-1
topMove, 1, 1
topMove, 2, 2, 20.
topMove, 3, 3
topMove, 4, 4
topMove, 5, 5
topMove, 6, 6
** 
** OUTPUT REQUESTS
** 
*Restart, write, number interval=1, time marks=NO
** 
** FIELD OUTPUT: F-Output-1
** 
*Output, field, number interval=100
*Node Output
A, COORD, RF, U, V
*Element Output, directions=YES
EVF, LE, PE, PEEQ, PEEQVAVG, PEVAVG, S, SDV, SVAVG
*Contact Output
CSTRESS, 
** 
** HISTORY OUTPUT: H-Output-1
** 
*Output, history, variable=PRESELECT
*End Step
